lattice_vector 100.0000000000000000 0.0000000000000000 0.0000000000000000
lattice_vector 0.0000000000000000 100.0000000000000000 0.0000000000000000
lattice_vector 0.0000000000000000 0.0000000000000000 100.0000000000000000
atom -0.0004468968816739 0.7535450343855969 0.1624371943145426 C
atom -0.0004471757620425 -0.7535708267441913 0.1624360900248467 C
atom 1.1879282012350045 1.4765220151033878 0.0569445012203094 C
atom -1.1882062186736337 1.4769392047446179 0.0546119981406401 C
atom 1.1879281094351863 -1.4765480577212435 0.0569463615572845 C
atom -1.1882069963000161 -1.4769647865745890 0.0546153886076986 C
atom 2.1891895779955304 2.0913172433443523 -0.1158633947047743 N
atom -2.1888219194818701 2.0923641654865661 -0.1200702086856532 N
atom 2.1892226244581323 -2.0912840098535623 -0.1158818512204835 N
atom -2.1888555749614658 -2.0923310819432186 -0.1180868509376906 N
homogeneous_field 0.0 0.0 -0.0010000000000000
set_vacuum_level 49.0000000000000000