lattice_vector 34.9799999999999969 0.0000000000000000 0.0000000000000000
lattice_vector -17.4899999999999878 30.2935686243796631 0.0000000000000000
lattice_vector 0.0000000000000000 0.0000000000000000 100.0000000000000000
atom -9.5399999904568169 -14.6880005694361131 -1.5950000004537834 Mo
atom -7.9500000130808530 -13.7699992008121264 -0.0003214072053747 S
atom -7.9500000115715759 -13.7699991394403458 -3.1896785855095624 S
atom -11.1299999904568168 -11.9340005694361135 -1.5950000004537834 Mo
atom -9.5400000130808529 -11.0159992008121250 -0.0003214072053747 S
atom -9.5400000115715748 -11.0159991394403445 -3.1896785855095624 S
atom -12.7199999904568166 -9.1800005694361122 -1.5950000004537834 Mo
atom -11.1300000130808527 -8.2619992008121255 -0.0003214072053747 S
atom -11.1300000115715747 -8.2619991394403449 -3.1896785855095624 S
atom -14.3099999904568165 -6.4260005694361135 -1.5950000004537834 Mo
atom -12.7200000130808526 -5.5079992008121268 -0.0003214072053747 S
atom -12.7200000115715746 -5.5079991394403462 -3.1896785855095624 S
atom -15.8999999904568163 -3.6720005694361140 -1.5950000004537834 Mo
atom -14.3100000130808525 -2.7539992008121268 -0.0003214072053747 S
atom -14.3100000115715744 -2.7539991394403467 -3.1896785855095624 S
atom -17.4899999904568162 -0.9180005694361144 -1.5950000004537834 Mo
atom -15.9000000130808523 0.0000007991878744 -0.0003214072053747 S
atom -15.9000000115715743 0.0000008605596548 -3.1896785855095624 S
atom -19.0799999904568161 1.8359994305638869 -1.5950000004537834 Mo
atom -17.4900000130808522 2.7540007991878741 -0.0003214072053747 S
atom -17.4900000115715741 2.7540008605596542 -3.1896785855095624 S
atom -20.6699999904568195 4.5899994305638847 -1.5950000004537834 Mo
atom -19.0800000130808520 5.5080007991878750 -0.0003214072053747 S
atom -19.0800000115715740 5.5080008605596555 -3.1896785855095624 S
atom -22.2599999904568158 7.3439994305638860 -1.5950000004537834 Mo
atom -20.6700000130808554 8.2620007991878737 -0.0003214072053747 S
atom -20.6700000115715774 8.2620008605596542 -3.1896785855095624 S
atom -23.8499999904568192 10.0979994305638883 -1.5950000004537834 Mo
atom -22.2600000130808517 11.0160007991878750 -0.0003214072053747 S
atom -22.2600000115715737 11.0160008605596555 -3.1896785855095624 S
atom -25.4399999904568155 12.8519994305638861 -1.5950000004537834 Mo
atom -23.8500000130808552 13.7700007991878728 -0.0003214072053747 S
atom -23.8500000115715771 13.7700008605596533 -3.1896785855095624 S
atom -6.3599999904568172 -14.6880005694361131 -1.5950000004537834 Mo
atom -4.7700000130808533 -13.7699992008121264 -0.0003214072053747 S
atom -4.7700000115715762 -13.7699991394403458 -3.1896785855095624 S
atom -7.9499999904568170 -11.9340005694361135 -1.5950000004537834 Mo
atom -6.3600000130808532 -11.0159992008121250 -0.0003214072053747 S
atom -6.3600000115715760 -11.0159991394403445 -3.1896785855095624 S
atom -9.5399999904568169 -9.1800005694361122 -1.5950000004537834 Mo
atom -7.9500000130808530 -8.2619992008121255 -0.0003214072053747 S
atom -7.9500000115715759 -8.2619991394403449 -3.1896785855095624 S
atom -11.1299999904568168 -6.4260005694361135 -1.5950000004537834 Mo
atom -9.5400000130808529 -5.5079992008121268 -0.0003214072053747 S
atom -9.5400000115715748 -5.5079991394403462 -3.1896785855095624 S
atom -12.7199999904568166 -3.6720005694361140 -1.5950000004537834 Mo
atom -11.1300000130808527 -2.7539992008121268 -0.0003214072053747 S
atom -11.1300000115715747 -2.7539991394403467 -3.1896785855095624 S
atom -14.3099999904568165 -0.9180005694361144 -1.5950000004537834 Mo
atom -12.7200000130808526 0.0000007991878744 -0.0003214072053747 S
atom -12.7200000115715746 0.0000008605596548 -3.1896785855095624 S
atom -15.8999999904568163 1.8359994305638869 -1.5950000004537834 Mo
atom -14.3100000130808525 2.7540007991878741 -0.0003214072053747 S
atom -14.3100000115715744 2.7540008605596542 -3.1896785855095624 S
atom -17.4899999904568162 4.5899994305638847 -1.5950000004537834 Mo
atom -15.9000000130808523 5.5080007991878750 -0.0003214072053747 S
atom -15.9000000115715743 5.5080008605596555 -3.1896785855095624 S
atom -19.0799999904568161 7.3439994305638860 -1.5950000004537834 Mo
atom -17.4900000130808522 8.2620007991878737 -0.0003214072053747 S
atom -17.4900000115715741 8.2620008605596542 -3.1896785855095624 S
atom -20.6699999904568195 10.0979994305638883 -1.5950000004537834 Mo
atom -19.0800000130808520 11.0160007991878750 -0.0003214072053747 S
atom -19.0800000115715740 11.0160008605596555 -3.1896785855095624 S
atom -22.2599999904568158 12.8519994305638861 -1.5950000004537834 Mo
atom -20.6700000130808554 13.7700007991878728 -0.0003214072053747 S
atom -20.6700000115715774 13.7700008605596533 -3.1896785855095624 S
atom -3.1799999904568161 -14.6880005694361131 -1.5950000004537834 Mo
atom -1.5900000130808531 -13.7699992008121264 -0.0003214072053747 S
atom -1.5900000115715753 -13.7699991394403458 -3.1896785855095624 S
atom -4.7699999904568173 -11.9340005694361135 -1.5950000004537834 Mo
atom -3.1800000130808530 -11.0159992008121250 -0.0003214072053747 S
atom -3.1800000115715754 -11.0159991394403445 -3.1896785855095624 S
atom -6.3599999904568172 -9.1800005694361122 -1.5950000004537834 Mo
atom -4.7700000130808533 -8.2619992008121255 -0.0003214072053747 S
atom -4.7700000115715762 -8.2619991394403449 -3.1896785855095624 S
atom -7.9499999904568170 -6.4260005694361135 -1.5950000004537834 Mo
atom -6.3600000130808532 -5.5079992008121268 -0.0003214072053747 S
atom -6.3600000115715760 -5.5079991394403462 -3.1896785855095624 S
atom -9.5399999904568169 -3.6720005694361140 -1.5950000004537834 Mo
atom -7.9500000130808530 -2.7539992008121268 -0.0003214072053747 S
atom -7.9500000115715759 -2.7539991394403467 -3.1896785855095624 S
atom -11.1299999904568168 -0.9180005694361144 -1.5950000004537834 Mo
atom -9.5400000130808529 0.0000007991878744 -0.0003214072053747 S
atom -9.5400000115715748 0.0000008605596548 -3.1896785855095624 S
atom -12.7199999904568166 1.8359994305638869 -1.5950000004537834 Mo
atom -11.1300000130808527 2.7540007991878741 -0.0003214072053747 S
atom -11.1300000115715747 2.7540008605596542 -3.1896785855095624 S
atom -14.3099999904568165 4.5899994305638847 -1.5950000004537834 Mo
atom -12.7200000130808526 5.5080007991878750 -0.0003214072053747 S
atom -12.7200000115715746 5.5080008605596555 -3.1896785855095624 S
atom -15.8999999904568163 7.3439994305638860 -1.5950000004537834 Mo
atom -14.3100000130808525 8.2620007991878737 -0.0003214072053747 S
atom -14.3100000115715744 8.2620008605596542 -3.1896785855095624 S
atom -17.4899999904568162 10.0979994305638883 -1.5950000004537834 Mo
atom -15.9000000130808523 11.0160007991878750 -0.0003214072053747 S
atom -15.9000000115715743 11.0160008605596555 -3.1896785855095624 S
atom -19.0799999904568161 12.8519994305638861 -1.5950000004537834 Mo
atom -17.4900000130808522 13.7700007991878728 -0.0003214072053747 S
atom -17.4900000115715741 13.7700008605596533 -3.1896785855095624 S
atom 0.0000000095431826 -14.6880005694361131 -1.5950000004537834 Mo
atom 1.5899999869191475 -13.7699992008121264 -0.0003214072053747 S
atom 1.5899999884284253 -13.7699991394403458 -3.1896785855095624 S
atom -1.5899999904568165 -11.9340005694361135 -1.5950000004537834 Mo
atom -0.0000000130808541 -11.0159992008121250 -0.0003214072053747 S
atom -0.0000000115715765 -11.0159991394403445 -3.1896785855095624 S
atom -3.1799999904568161 -9.1800005694361122 -1.5950000004537834 Mo
atom -1.5900000130808531 -8.2619992008121255 -0.0003214072053747 S
atom -1.5900000115715753 -8.2619991394403449 -3.1896785855095624 S
atom -4.7699999904568173 -6.4260005694361135 -1.5950000004537834 Mo
atom -3.1800000130808530 -5.5079992008121268 -0.0003214072053747 S
atom -3.1800000115715754 -5.5079991394403462 -3.1896785855095624 S
atom -6.3599999904568172 -3.6720005694361140 -1.5950000004537834 Mo
atom -4.7700000130808533 -2.7539992008121268 -0.0003214072053747 S
atom -4.7700000115715762 -2.7539991394403467 -3.1896785855095624 S
atom -7.9499999904568170 -0.9180005694361144 -1.5950000004537834 Mo
atom -6.3600000130808532 0.0000007991878744 -0.0003214072053747 S
atom -6.3600000115715760 0.0000008605596548 -3.1896785855095624 S
atom -9.5399999904568169 1.8359994305638869 -1.5950000004537834 Mo
atom -7.9500000130808530 2.7540007991878741 -0.0003214072053747 S
atom -7.9500000115715759 2.7540008605596542 -3.1896785855095624 S
atom -11.1299999904568168 4.5899994305638847 -1.5950000004537834 Mo
atom -9.5400000130808529 5.5080007991878750 -0.0003214072053747 S
atom -9.5400000115715748 5.5080008605596555 -3.1896785855095624 S
atom -12.7199999904568166 7.3439994305638860 -1.5950000004537834 Mo
atom -11.1300000130808527 8.2620007991878737 -0.0003214072053747 S
atom -11.1300000115715747 8.2620008605596542 -3.1896785855095624 S
atom -14.3099999904568165 10.0979994305638883 -1.5950000004537834 Mo
atom -12.7200000130808526 11.0160007991878750 -0.0003214072053747 S
atom -12.7200000115715746 11.0160008605596555 -3.1896785855095624 S
atom -15.8999999904568163 12.8519994305638861 -1.5950000004537834 Mo
atom -14.3100000130808525 13.7700007991878728 -0.0003214072053747 S
atom -14.3100000115715744 13.7700008605596533 -3.1896785855095624 S
atom 3.1800000095431842 -14.6880005694361131 -1.5950000004537834 Mo
atom 4.7699999869191476 -13.7699992008121264 -0.0003214072053747 S
atom 4.7699999884284248 -13.7699991394403458 -3.1896785855095624 S
atom 1.5900000095431841 -11.9340005694361135 -1.5950000004537834 Mo
atom 3.1799999869191473 -11.0159992008121250 -0.0003214072053747 S
atom 3.1799999884284249 -11.0159991394403445 -3.1896785855095624 S
atom 0.0000000095431826 -9.1800005694361122 -1.5950000004537834 Mo
atom 1.5899999869191475 -8.2619992008121255 -0.0003214072053747 S
atom 1.5899999884284253 -8.2619991394403449 -3.1896785855095624 S
atom -1.5899999904568165 -6.4260005694361135 -1.5950000004537834 Mo
atom -0.0000000130808541 -5.5079992008121268 -0.0003214072053747 S
atom -0.0000000115715765 -5.5079991394403462 -3.1896785855095624 S
atom -3.1799999904568161 -3.6720005694361140 -1.5950000004537834 Mo
atom -1.5900000130808531 -2.7539992008121268 -0.0003214072053747 S
atom -1.5900000115715753 -2.7539991394403467 -3.1896785855095624 S
atom -4.7699999904568173 -0.9180005694361144 -1.5950000004537834 Mo
atom -3.1800000130808530 0.0000007991878744 -0.0003214072053747 S
atom -3.1800000115715754 0.0000008605596548 -3.1896785855095624 S
atom -6.3599999904568172 1.8359994305638869 -1.5950000004537834 Mo
atom -4.7700000130808533 2.7540007991878741 -0.0003214072053747 S
atom -4.7700000115715762 2.7540008605596542 -3.1896785855095624 S
atom -7.9499999904568170 4.5899994305638847 -1.5950000004537834 Mo
atom -6.3600000130808532 5.5080007991878750 -0.0003214072053747 S
atom -6.3600000115715760 5.5080008605596555 -3.1896785855095624 S
atom -9.5399999904568169 7.3439994305638860 -1.5950000004537834 Mo
atom -7.9500000130808530 8.2620007991878737 -0.0003214072053747 S
atom -7.9500000115715759 8.2620008605596542 -3.1896785855095624 S
atom -11.1299999904568168 10.0979994305638883 -1.5950000004537834 Mo
atom -9.5400000130808529 11.0160007991878750 -0.0003214072053747 S
atom -9.5400000115715748 11.0160008605596555 -3.1896785855095624 S
atom -12.7199999904568166 12.8519994305638861 -1.5950000004537834 Mo
atom -11.1300000130808527 13.7700007991878728 -0.0003214072053747 S
atom -11.1300000115715747 13.7700008605596533 -3.1896785855095624 S
atom 6.3600000095431835 -14.6880005694361131 -1.5950000004537834 Mo
atom 7.9499999869191456 -13.7699992008121264 -0.0003214072053747 S
atom 7.9499999884284227 -13.7699991394403458 -3.1896785855095624 S
atom 4.7700000095431836 -11.9340005694361135 -1.5950000004537834 Mo
atom 6.3599999869191475 -11.0159992008121250 -0.0003214072053747 S
atom 6.3599999884284246 -11.0159991394403445 -3.1896785855095624 S
atom 3.1800000095431842 -9.1800005694361122 -1.5950000004537834 Mo
atom 4.7699999869191476 -8.2619992008121255 -0.0003214072053747 S
atom 4.7699999884284248 -8.2619991394403449 -3.1896785855095624 S
atom 1.5900000095431841 -6.4260005694361135 -1.5950000004537834 Mo
atom 3.1799999869191473 -5.5079992008121268 -0.0003214072053747 S
atom 3.1799999884284249 -5.5079991394403462 -3.1896785855095624 S
atom 0.0000000095431826 -3.6720005694361140 -1.5950000004537834 Mo
atom 1.5899999869191475 -2.7539992008121268 -0.0003214072053747 S
atom 1.5899999884284253 -2.7539991394403467 -3.1896785855095624 S
atom -1.5899999904568165 -0.9180005694361144 -1.5950000004537834 Mo
atom -0.0000000130808541 0.0000007991878744 -0.0003214072053747 S
atom -0.0000000115715765 0.0000008605596548 -3.1896785855095624 S
atom -3.1799999904568161 1.8359994305638869 -1.5950000004537834 Mo
atom -1.5900000130808531 2.7540007991878741 -0.0003214072053747 S
atom -1.5900000115715753 2.7540008605596542 -3.1896785855095624 S
atom -4.7699999904568173 4.5899994305638847 -1.5950000004537834 Mo
atom -3.1800000130808530 5.5080007991878750 -0.0003214072053747 S
atom -3.1800000115715754 5.5080008605596555 -3.1896785855095624 S
atom -6.3599999904568172 7.3439994305638860 -1.5950000004537834 Mo
atom -4.7700000130808533 8.2620007991878737 -0.0003214072053747 S
atom -4.7700000115715762 8.2620008605596542 -3.1896785855095624 S
atom -7.9499999904568170 10.0979994305638883 -1.5950000004537834 Mo
atom -6.3600000130808532 11.0160007991878750 -0.0003214072053747 S
atom -6.3600000115715760 11.0160008605596555 -3.1896785855095624 S
atom -9.5399999904568169 12.8519994305638861 -1.5950000004537834 Mo
atom -7.9500000130808530 13.7700007991878728 -0.0003214072053747 S
atom -7.9500000115715759 13.7700008605596533 -3.1896785855095624 S
atom 9.5400000095431814 -14.6880005694361131 -1.5950000004537834 Mo
atom 11.1299999869191488 -13.7699992008121264 -0.0003214072053747 S
atom 11.1299999884284269 -13.7699991394403458 -3.1896785855095624 S
atom 7.9500000095431815 -11.9340005694361135 -1.5950000004537834 Mo
atom 9.5399999869191454 -11.0159992008121250 -0.0003214072053747 S
atom 9.5399999884284234 -11.0159991394403445 -3.1896785855095624 S
atom 6.3600000095431835 -9.1800005694361122 -1.5950000004537834 Mo
atom 7.9499999869191456 -8.2619992008121255 -0.0003214072053747 S
atom 7.9499999884284227 -8.2619991394403449 -3.1896785855095624 S
atom 4.7700000095431836 -6.4260005694361135 -1.5950000004537834 Mo
atom 6.3599999869191475 -5.5079992008121268 -0.0003214072053747 S
atom 6.3599999884284246 -5.5079991394403462 -3.1896785855095624 S
atom 3.1800000095431842 -3.6720005694361140 -1.5950000004537834 Mo
atom 4.7699999869191476 -2.7539992008121268 -0.0003214072053747 S
atom 4.7699999884284248 -2.7539991394403467 -3.1896785855095624 S
atom 1.5900000095431841 -0.9180005694361144 -1.5950000004537834 Mo
atom 3.1799999869191473 0.0000007991878744 -0.0003214072053747 S
atom 3.1799999884284249 0.0000008605596548 -3.1896785855095624 S
atom 0.0000000095431826 1.8359994305638869 -1.5950000004537834 Mo
atom 1.5899999869191475 2.7540007991878741 -0.0003214072053747 S
atom 1.5899999884284253 2.7540008605596542 -3.1896785855095624 S
atom -1.5899999904568165 4.5899994305638847 -1.5950000004537834 Mo
atom -0.0000000130808541 5.5080007991878750 -0.0003214072053747 S
atom -0.0000000115715765 5.5080008605596555 -3.1896785855095624 S
atom -3.1799999904568161 7.3439994305638860 -1.5950000004537834 Mo
atom -1.5900000130808531 8.2620007991878737 -0.0003214072053747 S
atom -1.5900000115715753 8.2620008605596542 -3.1896785855095624 S
atom -4.7699999904568173 10.0979994305638883 -1.5950000004537834 Mo
atom -3.1800000130808530 11.0160007991878750 -0.0003214072053747 S
atom -3.1800000115715754 11.0160008605596555 -3.1896785855095624 S
atom -6.3599999904568172 12.8519994305638861 -1.5950000004537834 Mo
atom -4.7700000130808533 13.7700007991878728 -0.0003214072053747 S
atom -4.7700000115715762 13.7700008605596533 -3.1896785855095624 S
atom 12.7200000095431847 -14.6880005694361131 -1.5950000004537834 Mo
atom 14.3099999869191485 -13.7699992008121264 -0.0003214072053747 S
atom 14.3099999884284266 -13.7699991394403458 -3.1896785855095624 S
atom 11.1300000095431848 -11.9340005694361135 -1.5950000004537834 Mo
atom 12.7199999869191487 -11.0159992008121250 -0.0003214072053747 S
atom 12.7199999884284267 -11.0159991394403445 -3.1896785855095624 S
atom 9.5400000095431814 -9.1800005694361122 -1.5950000004537834 Mo
atom 11.1299999869191488 -8.2619992008121255 -0.0003214072053747 S
atom 11.1299999884284269 -8.2619991394403449 -3.1896785855095624 S
atom 7.9500000095431815 -6.4260005694361135 -1.5950000004537834 Mo
atom 9.5399999869191454 -5.5079992008121268 -0.0003214072053747 S
atom 9.5399999884284234 -5.5079991394403462 -3.1896785855095624 S
atom 6.3600000095431835 -3.6720005694361140 -1.5950000004537834 Mo
atom 7.9499999869191456 -2.7539992008121268 -0.0003214072053747 S
atom 7.9499999884284227 -2.7539991394403467 -3.1896785855095624 S
atom 4.7700000095431836 -0.9180005694361144 -1.5950000004537834 Mo
atom 6.3599999869191475 0.0000007991878744 -0.0003214072053747 S
atom 6.3599999884284246 0.0000008605596548 -3.1896785855095624 S
atom 3.1800000095431842 1.8359994305638869 -1.5950000004537834 Mo
atom 4.7699999869191476 2.7540007991878741 -0.0003214072053747 S
atom 4.7699999884284248 2.7540008605596542 -3.1896785855095624 S
atom 1.5900000095431841 4.5899994305638847 -1.5950000004537834 Mo
atom 3.1799999869191473 5.5080007991878750 -0.0003214072053747 S
atom 3.1799999884284249 5.5080008605596555 -3.1896785855095624 S
atom 0.0000000095431826 7.3439994305638860 -1.5950000004537834 Mo
atom 1.5899999869191475 8.2620007991878737 -0.0003214072053747 S
atom 1.5899999884284253 8.2620008605596542 -3.1896785855095624 S
atom -1.5899999904568165 10.0979994305638883 -1.5950000004537834 Mo
atom -0.0000000130808541 11.0160007991878750 -0.0003214072053747 S
atom -0.0000000115715765 11.0160008605596555 -3.1896785855095624 S
atom -3.1799999904568161 12.8519994305638861 -1.5950000004537834 Mo
atom -1.5900000130808531 13.7700007991878728 -0.0003214072053747 S
atom -1.5900000115715753 13.7700008605596533 -3.1896785855095624 S
atom 15.9000000095431844 -14.6880005694361131 -1.5950000004537834 Mo
atom 17.4899999869191483 -13.7699992008121264 -0.0003214072053747 S
atom 17.4899999884284263 -13.7699991394403458 -3.1896785855095624 S
atom 14.3100000095431845 -11.9340005694361135 -1.5950000004537834 Mo
atom 15.8999999869191484 -11.0159992008121250 -0.0003214072053747 S
atom 15.8999999884284264 -11.0159991394403445 -3.1896785855095624 S
atom 12.7200000095431847 -9.1800005694361122 -1.5950000004537834 Mo
atom 14.3099999869191485 -8.2619992008121255 -0.0003214072053747 S
atom 14.3099999884284266 -8.2619991394403449 -3.1896785855095624 S
atom 11.1300000095431848 -6.4260005694361135 -1.5950000004537834 Mo
atom 12.7199999869191487 -5.5079992008121268 -0.0003214072053747 S
atom 12.7199999884284267 -5.5079991394403462 -3.1896785855095624 S
atom 9.5400000095431814 -3.6720005694361140 -1.5950000004537834 Mo
atom 11.1299999869191488 -2.7539992008121268 -0.0003214072053747 S
atom 11.1299999884284269 -2.7539991394403467 -3.1896785855095624 S
atom 7.9500000095431815 -0.9180005694361144 -1.5950000004537834 Mo
atom 9.5399999869191454 0.0000007991878744 -0.0003214072053747 S
atom 9.5399999884284234 0.0000008605596548 -3.1896785855095624 S
atom 6.3600000095431835 1.8359994305638869 -1.5950000004537834 Mo
atom 7.9499999869191456 2.7540007991878741 -0.0003214072053747 S
atom 7.9499999884284227 2.7540008605596542 -3.1896785855095624 S
atom 4.7700000095431836 4.5899994305638847 -1.5950000004537834 Mo
atom 6.3599999869191475 5.5080007991878750 -0.0003214072053747 S
atom 6.3599999884284246 5.5080008605596555 -3.1896785855095624 S
atom 3.1800000095431842 7.3439994305638860 -1.5950000004537834 Mo
atom 4.7699999869191476 8.2620007991878737 -0.0003214072053747 S
atom 4.7699999884284248 8.2620008605596542 -3.1896785855095624 S
atom 1.5900000095431841 10.0979994305638883 -1.5950000004537834 Mo
atom 3.1799999869191473 11.0160007991878750 -0.0003214072053747 S
atom 3.1799999884284249 11.0160008605596555 -3.1896785855095624 S
atom 0.0000000095431826 12.8519994305638861 -1.5950000004537834 Mo
atom 1.5899999869191475 13.7700007991878728 -0.0003214072053747 S
atom 1.5899999884284253 13.7700008605596533 -3.1896785855095624 S
atom 19.0800000095431841 -14.6880005694361131 -1.5950000004537834 Mo
atom 20.6699999869191480 -13.7699992008121264 -0.0003214072053747 S
atom 20.6699999884284260 -13.7699991394403458 -3.1896785855095624 S
atom 17.4900000095431842 -11.9340005694361135 -1.5950000004537834 Mo
atom 19.0799999869191481 -11.0159992008121250 -0.0003214072053747 S
atom 19.0799999884284261 -11.0159991394403445 -3.1896785855095624 S
atom 15.9000000095431844 -9.1800005694361122 -1.5950000004537834 Mo
atom 17.4899999869191483 -8.2619992008121255 -0.0003214072053747 S
atom 17.4899999884284263 -8.2619991394403449 -3.1896785855095624 S
atom 14.3100000095431845 -6.4260005694361135 -1.5950000004537834 Mo
atom 15.8999999869191484 -5.5079992008121268 -0.0003214072053747 S
atom 15.8999999884284264 -5.5079991394403462 -3.1896785855095624 S
atom 12.7200000095431847 -3.6720005694361140 -1.5950000004537834 Mo
atom 14.3099999869191485 -2.7539992008121268 -0.0003214072053747 S
atom 14.3099999884284266 -2.7539991394403467 -3.1896785855095624 S
atom 11.1300000095431848 -0.9180005694361144 -1.5950000004537834 Mo
atom 12.7199999869191487 0.0000007991878744 -0.0003214072053747 S
atom 12.7199999884284267 0.0000008605596548 -3.1896785855095624 S
atom 9.5400000095431814 1.8359994305638869 -1.5950000004537834 Mo
atom 11.1299999869191488 2.7540007991878741 -0.0003214072053747 S
atom 11.1299999884284269 2.7540008605596542 -3.1896785855095624 S
atom 7.9500000095431815 4.5899994305638847 -1.5950000004537834 Mo
atom 9.5399999869191454 5.5080007991878750 -0.0003214072053747 S
atom 9.5399999884284234 5.5080008605596555 -3.1896785855095624 S
atom 6.3600000095431835 7.3439994305638860 -1.5950000004537834 Mo
atom 7.9499999869191456 8.2620007991878737 -0.0003214072053747 S
atom 7.9499999884284227 8.2620008605596542 -3.1896785855095624 S
atom 4.7700000095431836 10.0979994305638883 -1.5950000004537834 Mo
atom 6.3599999869191475 11.0160007991878750 -0.0003214072053747 S
atom 6.3599999884284246 11.0160008605596555 -3.1896785855095624 S
atom 3.1800000095431842 12.8519994305638861 -1.5950000004537834 Mo
atom 4.7699999869191476 13.7700007991878728 -0.0003214072053747 S
atom 4.7699999884284248 13.7700008605596533 -3.1896785855095624 S
atom 22.2600000095431838 -14.6880005694361131 -1.5950000004537834 Mo
atom 23.8499999869191477 -13.7699992008121264 -0.0003214072053747 S
atom 23.8499999884284257 -13.7699991394403458 -3.1896785855095624 S
atom 20.6700000095431839 -11.9340005694361135 -1.5950000004537834 Mo
atom 22.2599999869191478 -11.0159992008121250 -0.0003214072053747 S
atom 22.2599999884284259 -11.0159991394403445 -3.1896785855095624 S
atom 19.0800000095431841 -9.1800005694361122 -1.5950000004537834 Mo
atom 20.6699999869191480 -8.2619992008121255 -0.0003214072053747 S
atom 20.6699999884284260 -8.2619991394403449 -3.1896785855095624 S
atom 17.4900000095431842 -6.4260005694361135 -1.5950000004537834 Mo
atom 19.0799999869191481 -5.5079992008121268 -0.0003214072053747 S
atom 19.0799999884284261 -5.5079991394403462 -3.1896785855095624 S
atom 15.9000000095431844 -3.6720005694361140 -1.5950000004537834 Mo
atom 17.4899999869191483 -2.7539992008121268 -0.0003214072053747 S
atom 17.4899999884284263 -2.7539991394403467 -3.1896785855095624 S
atom 14.3100000095431845 -0.9180005694361144 -1.5950000004537834 Mo
atom 15.8999999869191484 0.0000007991878744 -0.0003214072053747 S
atom 15.8999999884284264 0.0000008605596548 -3.1896785855095624 S
atom 12.7200000095431847 1.8359994305638869 -1.5950000004537834 Mo
atom 14.3099999869191485 2.7540007991878741 -0.0003214072053747 S
atom 14.3099999884284266 2.7540008605596542 -3.1896785855095624 S
atom 11.1300000095431848 4.5899994305638847 -1.5950000004537834 Mo
atom 12.7199999869191487 5.5080007991878750 -0.0003214072053747 S
atom 12.7199999884284267 5.5080008605596555 -3.1896785855095624 S
atom 9.5400000095431814 7.3439994305638860 -1.5950000004537834 Mo
atom 11.1299999869191488 8.2620007991878737 -0.0003214072053747 S
atom 11.1299999884284269 8.2620008605596542 -3.1896785855095624 S
atom 7.9500000095431815 10.0979994305638883 -1.5950000004537834 Mo
atom 9.5399999869191454 11.0160007991878750 -0.0003214072053747 S
atom 9.5399999884284234 11.0160008605596555 -3.1896785855095624 S
atom 6.3600000095431835 12.8519994305638861 -1.5950000004537834 Mo
atom 7.9499999869191456 13.7700007991878728 -0.0003214072053747 S
atom 7.9499999884284227 13.7700008605596533 -3.1896785855095624 S
set_vacuum_level 49.0000000000000000
