lattice_vector 100.0000000000000000 0.0000000000000000 0.0000000000000000
lattice_vector 0.0000000000000000 100.0000000000000000 0.0000000000000000
lattice_vector 0.0000000000000000 0.0000000000000000 100.0000000000000000
atom -0.0002344306391979 0.7535450220215101 0.1624370310829856 C
atom -0.0002346933987830 -0.7535708390137454 0.1624359652277123 C
atom 1.1890114177845454 1.4749557531325841 0.0569001404857270 C
atom -1.1871229854269398 1.4785055050448896 0.0546562233018628 C
atom 1.1890113543275092 -1.4749818637799459 0.0569022927805851 C
atom -1.1871237574924736 -1.4785310292494467 0.0546593899862576 C
atom 2.1882706675362087 2.0922124052259532 -0.1184612650649899 N
atom -2.1897407463208340 2.0914691959541405 -0.1174723161613118 N
atom 2.1883039151839885 -2.0921792269261639 -0.1184793453117022 N
atom -2.1897742847113202 -2.0914359624714893 -0.1154892959918479 N
homogeneous_field 0.0 0.0 0.0
set_vacuum_level 49.0000000000000000