lattice_vector 100.0000000000000000 0.0000000000000000 0.0000000000000000
lattice_vector 0.0000000000000000 100.0000000000000000 0.0000000000000000
lattice_vector 0.0000000000000000 0.0000000000000000 100.0000000000000000
atom 0.0000000007028416 0.7501821501089210 0.1626074104626159 C
atom -0.0000002422831487 -0.7502079724408789 0.1626063494672064 C
atom 1.1880865958592843 1.4770601328201478 0.0557952028559827 C
atom -1.1880863774239399 1.4770603680005838 0.0557941407145394 C
atom 1.1880865811020904 -1.4770862227904091 0.0557973359359937 C
atom -1.1880870658282978 -1.4770859873999371 0.0557973358077819 C
atom 2.1896205152083490 2.0921267957028062 -0.1180759373897220 N
atom -2.1896200642069621 2.0921275045545751 -0.1180770008731350 N
atom 2.1896536838032530 -2.0920935557200404 -0.1180940041618857 N
atom -2.1896536993311857 -2.0920942621558840 -0.1160940042960684 N
homogeneous_field 0.0 0.0 -0.0010000000000000
set_vacuum_level 49.0000000000000000