lattice_vector 100.0000000000000000 0.0000000000000000 0.0000000000000000
lattice_vector 0.0000000000000000 100.0000000000000000 0.0000000000000000
lattice_vector 0.0000000000000000 0.0000000000000000 100.0000000000000000
atom 0.0008132516068699 0.7535450235063700 0.1624370197473030 C
atom 0.0008130328186105 -0.7535708379199033 0.1624359619586664 C
atom 1.1883714920771953 1.4775853025033376 0.0561108576292542 C
atom -1.1877629072938001 1.4758759697883910 0.0554454942587004 C
atom 1.1883714701293557 -1.4776112543420221 0.0561123238941745 C
atom -1.1877636358584005 -1.4759016449803057 0.0554493507283353 C
atom 2.1885816320474780 2.0939574063943436 -0.1173956892061555 N
atom -2.1894297639650646 2.0897242321343552 -0.1185378984884934 N
atom 2.1886148263274867 -2.0939240637059755 -0.1174148298191489 N
atom -2.1894633580671434 -2.0896911508873890 -0.1165538010640730 N
homogeneous_field 0.0 0.0 -0.0010000000000000
set_vacuum_level 49.0000000000000000