lattice_vector 100.0000000000000000 0.0000000000000000 0.0000000000000000
lattice_vector 0.0000000000000000 100.0000000000000000 0.0000000000000000
lattice_vector 0.0000000000000000 0.0000000000000000 100.0000000000000000
atom -0.0000000077522561 0.7532383532585670 0.1639371730382565 C
atom -0.0000002419855917 -0.7532641013311402 0.1639357864319165 C
atom 1.1878868769467203 1.4758512630777321 0.0539295971929941 C
atom -1.1878866576471705 1.4758514922667307 0.0539285243100568 C
atom 1.1878868892556620 -1.4758773221997221 0.0539320161031851 C
atom -1.1878873748054419 -1.4758770812350563 0.0539319993997102 C
atom 2.1887120252213594 2.0918494168370563 -0.1170902994140636 N
atom -2.1887115684567533 2.0918501242794107 -0.1170913566877245 N
atom 2.1887452080217318 -2.0918162383079131 -0.1171084947646361 N
atom -2.1887452221338903 -2.0918169460654368 -0.1151084857150529 N
homogeneous_field 0.0 0.0 -0.0010000000000000
set_vacuum_level 49.0000000000000000