lattice_vector 100.0000000000000000 0.0000000000000000 0.0000000000000000
lattice_vector 0.0000000000000000 100.0000000000000000 0.0000000000000000
lattice_vector 0.0000000000000000 0.0000000000000000 100.0000000000000000
atom -0.0000182608741247 0.7535450298188368 0.1624371248522754 C
atom 0.0000183354972814 -0.7535708305656488 0.1624360160602901 C
atom 1.1879640554873474 1.4765582125070689 0.0544996272864689 C
atom -1.1881703485834751 1.4769030548001458 0.0570568681764201 C
atom 1.1881706834922843 -1.4769292585257408 0.0570603816830474 C
atom -1.1879644081286822 -1.4765836401728316 0.0545013320296001 C
atom 2.1889347957279082 2.0914269103870802 -0.1200625975895000 N
atom -2.1890766240646369 2.0922546783506513 -0.1158708933589643 N
atom 2.1891100356182349 -2.0922217928607663 -0.1158872698264959 N
atom -2.1889680988620870 -2.0913934625272330 -0.1180813766457351 N
homogeneous_field 0.0 0.0 0.0
set_vacuum_level 49.0000000000000000