lattice_vector 100.0000000000000000 0.0000000000000000 0.0000000000000000
lattice_vector 0.0000000000000000 100.0000000000000000 0.0000000000000000
lattice_vector 0.0000000000000000 0.0000000000000000 100.0000000000000000
atom -0.0000000075405812 0.7530484158745178 0.1620782012198836 C
atom -0.0000002432721929 -0.7540676293554037 0.1627949734189698 C
atom 1.1862651914945399 1.4779982426163956 0.0557307718939060 C
atom -1.1862649703850905 1.4779984794273624 0.0557297118847638 C
atom 1.1898703019183314 -1.4754883328894277 0.0558288355552505 C
atom -1.1898707887559417 -1.4754880949431646 0.0558288359692155 C
atom 2.1884067678436772 2.0909423680409409 -0.1177748770007529 N
atom -2.1884063135542222 2.0909430729170850 -0.1177759403825287 N
atom 2.1896387635499508 -2.0927058134834700 -0.1181758435764602 N
atom -2.1896387754794424 -2.0927065195599415 -0.1161758436532273 N
homogeneous_field 0.0 0.0 -0.0010000000000000
set_vacuum_level 49.0000000000000000