lattice_vector 100.0000000000000000 0.0000000000000000 0.0000000000000000
lattice_vector 0.0000000000000000 100.0000000000000000 0.0000000000000000
lattice_vector 0.0000000000000000 0.0000000000000000 100.0000000000000000
atom -0.0030500849917765 0.7535450170672987 0.1624370302324794 C
atom -0.0030502493620043 -0.7535708350727069 0.1624359686504146 C
atom 1.1884646871819724 1.4769135417137185 0.0558250089456917 C
atom -1.1876697170193793 1.4765477206649786 0.0557313569399370 C
atom 1.1884646433610946 -1.4769396515378332 0.0558271492546391 C
atom -1.1876704654431554 -1.4765732453229798 0.0557345275124316 C
atom 2.1899902474572577 2.0924728764767839 -0.1181566859233985 N
atom -2.1880211687501530 2.0912087264980372 -0.1177768957162442 N
atom 2.1900234217639905 -2.0924396079318517 -0.1181747577913741 N
atom -2.1880547771341390 -2.0911755796470066 -0.1157938813192846 N
homogeneous_field 0.0 0.0 -0.0010000000000000
set_vacuum_level 49.0000000000000000