lattice_vector 100.0000000000000000 0.0000000000000000 0.0000000000000000
lattice_vector 0.0000000000000000 100.0000000000000000 0.0000000000000000
lattice_vector 0.0000000000000000 0.0000000000000000 100.0000000000000000
atom -0.0000000069880714 0.7545057800938126 0.1634925860949002 C
atom -0.0000002429486492 -0.7545316670010186 0.1634912561891733 C
atom 1.1880259653984901 1.4785348734402137 0.0550993341711077 C
atom -1.1880257436327917 1.4785351048827715 0.0550982667317561 C
atom 1.1880260304185755 -1.4785609828510569 0.0551017467946321 C
atom -1.1880265146676081 -1.4785607506045952 0.0551017445760084 C
atom 2.1901954767154694 2.0921420570393714 -0.1178844752670924 N
atom -2.1901950198689759 2.0921427624837228 -0.1178855347181436 N
atom 2.1902285981572316 -2.0921087677189236 -0.1179026558823343 N
atom -2.1902286164385596 -2.0921094738057775 -0.1159026549543972 N
homogeneous_field 0.0 0.0 -0.0010000000000000
set_vacuum_level 49.0000000000000000