lattice_vector 100.0000000000000000 0.0000000000000000 0.0000000000000000
lattice_vector 0.0000000000000000 100.0000000000000000 0.0000000000000000
lattice_vector 0.0000000000000000 0.0000000000000000 100.0000000000000000
atom -0.0000000072146879 0.7539726989871671 0.1627646510728035 C
atom -0.0000002434152698 -0.7539982426750800 0.1627634402967698 C
atom 1.1899085183743776 1.4757613076079996 0.0558710002035427 C
atom -1.1899082987913177 1.4757615411353355 0.0558699355218830 C
atom 1.1899075711289728 -1.4757880218792299 0.0558731102877374 C
atom -1.1899080582891790 -1.4757877844032092 0.0558731103461351 C
atom 2.1898588477157954 2.0928323944513729 -0.1182084315681081 N
atom -2.1898583911061911 2.0928331007002829 -0.1182094930310998 N
atom 2.1898918090293855 -2.0927987302334374 -0.1182264220104443 N
atom -2.1898918218645660 -2.0927994367442468 -0.1162264220756034 N
homogeneous_field 0.0 0.0 -0.0010000000000000
set_vacuum_level 49.0000000000000000