lattice_vector 23.5155431200000002 0.0000000000000000 0.0000000000000000
lattice_vector 0.0000000000000000 23.5155431200000002 0.0000000000000000
lattice_vector 0.0000000000000000 0.0000000000000000 100.0000000000000000
atom 0.0000000000053846 -0.0000000000934330 0.0000000760396699 Mg
atom 0.0000000000002106 -2.0676730617574766 -0.0000000500627589 N
atom 2.0676693802429789 -0.0000000000683853 -0.0000000500107653 N
atom -0.0000000000235166 2.0676730591858878 -0.0000000500508853 N
atom -2.0676693798392600 -0.0000000000639965 -0.0000000500074223 N
atom 1.1072044135814150 -2.8867330413760413 0.0000001846648367 C
atom -1.1072044135891397 -2.8867330413603010 0.0000001846532411 C
atom 1.1072044189004482 2.8867330319406777 0.0000001844094474 C
atom -1.1072044188667212 2.8867330320535252 0.0000001844121737 C
atom 2.8867269618692837 -1.1072039534619418 0.0000001850072979 C
atom 2.8867269615699294 1.1072039534706033 0.0000001849415151 C
atom -2.8867269604012873 -1.1072039543003622 0.0000001849589059 C
atom -2.8867269601138679 1.1072039541949457 0.0000001849060007 C
atom 0.6849189827748973 -4.2705436250346471 -0.0000027845539546 C
atom -0.6849189819477202 -4.2705436239898402 -0.0000027845951368 C
atom 0.6849191315497604 4.2705437943378870 -0.0000027820912978 C
atom -0.6849191288276095 4.2705437905964327 -0.0000027821942046 C
atom 4.2705376376742787 -0.6849173861320500 -0.0000027984480650 C
atom 4.2705376379853490 0.6849173864349547 -0.0000027976137385 C
atom -4.2705376647575353 -0.6849174099025919 -0.0000027978231850 C
atom -4.2705376647623092 0.6849174100080582 -0.0000027969973378 C
atom 2.4381325074832958 -2.4381338464615712 -0.0000001195695088 C
atom -2.4381325077240117 -2.4381338464668647 -0.0000001195649201 C
atom -2.4381325086909689 2.4381338489953026 -0.0000001194835524 C
atom 2.4381325087033026 2.4381338492885791 -0.0000001194820885 C
atom 1.3526809360458310 -5.1311601001663600 0.0000279151221597 H
atom -1.3526809459827367 -5.1311601127358548 0.0000279150232467 H
atom 1.3526794480449793 5.1311581926124825 0.0000278913917111 H
atom -1.3526794824932118 5.1311582373184370 0.0000278922260912 H
atom 5.1311599719955971 -1.3526844811498528 0.0000280511952002 H
atom 5.1311599714440392 1.3526844784624272 0.0000280426005757 H
atom -5.1311596674416950 -1.3526842432643409 0.0000280450590192 H
atom -5.1311596697909874 1.3526842430037571 0.0000280363547964 H
atom 3.2096737304197109 3.2096707882840576 0.0000015328597108 H
atom 3.2096737535999944 -3.2096708074626767 0.0000015347829719 H
atom -3.2096737532728961 -3.2096708062799753 0.0000015347386430 H
atom -3.2096737331556624 3.2096707901581487 0.0020015338449182 H
homogeneous_field 0.0 0.0 0.0
set_vacuum_level 49.0000000000000000