lattice_vector 100.0000000000000000 0.0000000000000000 0.0000000000000000
lattice_vector 0.0000000000000000 100.0000000000000000 0.0000000000000000
lattice_vector 0.0000000000000000 0.0000000000000000 100.0000000000000000
atom 0.0004468822246161 0.7535450103258676 0.1624368676860038 C
atom 0.0004466907941225 -0.7535708518832002 0.1624358472656917 C
atom 1.1882064230204166 1.4769390106007700 0.0546129262002406 C
atom -1.1879279645850354 1.4765222912704057 0.0569433045699019 C
atom 1.1882065148202348 -1.4769650722097105 0.0546153152832671 C
atom -1.1879285978912397 -1.4765478730454993 0.0569462882328530 C
atom 2.1888222914437607 2.0923636534803767 -0.1200691242446799 N
atom -2.1891890386498050 2.0913181422707461 -0.1158644349738088 N
atom 2.1888555588127581 -2.0923304728606249 -0.1200867877989775 N
atom -2.1892226376235384 -2.0912848117035625 -0.1138817880817656 N
homogeneous_field 0.0 0.0 0.0
set_vacuum_level 49.0000000000000000