lattice_vector 100.0000000000000000 0.0000000000000000 0.0000000000000000
lattice_vector 0.0000000000000000 100.0000000000000000 0.0000000000000000
lattice_vector 0.0000000000000000 0.0000000000000000 100.0000000000000000
atom -0.0000000072449539 0.7563655417239717 0.1620222801266279 C
atom -0.0000002437808182 -0.7507503388044938 0.1628507184881296 C
atom 1.1878637477366070 1.4758918888802564 0.0557446066748850 C
atom -1.1878635276684786 1.4758921241718554 0.0557435451910570 C
atom 1.1882708490708058 -1.4775952737686604 0.0558149639743252 C
atom -1.1882713337621860 -1.4775950368908968 0.0558149640851408 C
atom 2.1879332410879204 2.0913344266877334 -0.1177827333489413 N
atom -2.1879327852799100 2.0913351315654074 -0.1177837956317498 N
atom 2.1901118006030704 -2.0923131948484106 -0.1181678582852823 N
atom -2.1901118145489753 -2.0923139008018747 -0.1161678581806570 N
homogeneous_field 0.0 0.0 -0.0010000000000000
set_vacuum_level 49.0000000000000000