lattice_vector 100.0000000000000000 0.0000000000000000 0.0000000000000000
lattice_vector 0.0000000000000000 100.0000000000000000 0.0000000000000000
lattice_vector 0.0000000000000000 0.0000000000000000 100.0000000000000000
atom -0.0000000084294698 0.7531140184569427 0.1625232412796029 C
atom -0.0000002438191827 -0.7531399130832289 0.1625221633083566 C
atom 1.1898020087310062 1.4777895520274904 0.0555010462381388 C
atom -1.1898017820590010 1.4777897841590202 0.0554999846678470 C
atom 1.1898017616019487 -1.4778153444923774 0.0555031919058866 C
atom -1.1898022362562046 -1.4778151042828380 0.0555031936613104 C
atom 2.1878305437572463 2.0911159093991474 -0.1177658948575140 N
atom -2.1878300924784755 2.0911166168658815 -0.1177669579024599 N
atom 2.1878638597997959 -2.0910828904576686 -0.1177839657935288 N
atom -2.1878638821286769 -2.0910835992947798 -0.1157839670338617 N
homogeneous_field 0.0 0.0 -0.0010000000000000
set_vacuum_level 49.0000000000000000