lattice_vector 100.0000000000000000 0.0000000000000000 0.0000000000000000
lattice_vector 0.0000000000000000 100.0000000000000000 0.0000000000000000
lattice_vector 0.0000000000000000 0.0000000000000000 100.0000000000000000
atom -0.0008132662639277 0.7535450212050946 0.1624370422532434 C
atom -0.0008135177865305 -0.7535708407074881 0.1624359753318720 C
atom 1.1877631321782258 1.4758757232008202 0.0554465697912958 C
atom -1.1883712759648690 1.4775855262266326 0.0561098084518416 C
atom 1.1877631541260654 -1.4759018755889319 0.0554493529463771 C
atom -1.1883719583328554 -1.4776110146397825 0.0561123261122163 C
atom 2.1894302373918131 2.0897234904303854 -0.1185368297432987 N
atom -2.1885811941666105 2.0939580756229570 -0.1173967451709686 N
atom 2.1894633569434037 -2.0896904190082117 -0.1185538092003121 N
atom -2.1886148545178608 -2.0939247427593921 -0.1154148379553832 N
homogeneous_field 0.0 0.0 0.0
set_vacuum_level 49.0000000000000000