lattice_vector 100.0000000000000000 0.0000000000000000 0.0000000000000000
lattice_vector 0.0000000000000000 100.0000000000000000 0.0000000000000000
lattice_vector 0.0000000000000000 0.0000000000000000 100.0000000000000000
atom -0.0000000074175724 0.7537318337236169 0.1597709577648337 C
atom -0.0000002448952990 -0.7533840233521704 0.1651019596954611 C
atom 1.1883161964205609 1.4769384691656411 0.0550481206558351 C
atom -1.1883159770208793 1.4769387043294362 0.0550470560695529 C
atom 1.1878184329622694 -1.4765486060905808 0.0565114278536403 C
atom -1.1878189221018056 -1.4765483708567921 0.0565114214908732 C
atom 2.1896692193858942 2.0919359940010196 -0.1167049978901055 N
atom -2.1896687650906332 2.0919366984464229 -0.1167060657384695 N
atom 2.1883758065011296 -2.0917116991664124 -0.1192454881626548 N
atom -2.1883758240721565 -2.0917124076608657 -0.1172454906615689 N
homogeneous_field 0.0 0.0 -0.0010000000000000
set_vacuum_level 49.0000000000000000