lattice_vector 100.0000000000000000 0.0000000000000000 0.0000000000000000
lattice_vector 0.0000000000000000 100.0000000000000000 0.0000000000000000
lattice_vector 0.0000000000000000 0.0000000000000000 100.0000000000000000
atom 0.0005512353881003 0.7535450212530158 0.1624370296709597 C
atom -0.0005515632105481 -0.7535708384426993 0.1624359676680333 C
atom 1.1878536459472457 1.4788665308822291 0.0560056530922658 C
atom -1.1882807562166069 1.4745947280773819 0.0555507122606805 C
atom 1.1882809963472103 -1.4746203410616328 0.0555537853531046 C
atom -1.1878541146373818 -1.4788925486558222 0.0560078921263752 C
atom 2.1901630873177176 2.0918871795474976 -0.1182771769870312 N
atom -2.1878483230190438 2.0917944209379304 -0.1176564040863319 N
atom 2.1878819542515040 -2.0917606304085141 -0.1176733505525298 N
atom -2.1901962438843383 -2.0918545587037372 -0.1162952892051048 N
homogeneous_field 0.0 0.0 -0.0010000000000000
set_vacuum_level 49.0000000000000000