lattice_vector 100.0000000000000000 0.0000000000000000 0.0000000000000000
lattice_vector 0.0000000000000000 100.0000000000000000 0.0000000000000000
lattice_vector 0.0000000000000000 0.0000000000000000 100.0000000000000000
atom -0.0012622602620698 0.7535450191870482 0.1624370294993176 C
atom 0.0012619176402056 -0.7535708429493168 0.1624359712205539 C
atom 1.1865389805260886 1.4770317411784861 0.0559287895024762 C
atom -1.1895954224173679 1.4764295160944207 0.0556275780207968 C
atom 1.1895955973518191 -1.4764552520407799 0.0556307791020726 C
atom -1.1865395137851424 -1.4770576462697496 0.0559308984264174 C
atom 2.1886706653167645 2.0901685339503313 -0.1176551855065691 N
atom -2.1893407441605328 2.0935130701725511 -0.1182783879171219 N
atom 2.1893744319628610 -2.0934791078309547 -0.1182953724612269 N
atom -2.1887037731357122 -2.0901360775578262 -0.1156732708545627 N
homogeneous_field 0.0 0.0 -0.0010000000000000
set_vacuum_level 49.0000000000000000