lattice_vector 100.0000000000000000 0.0000000000000000 0.0000000000000000
lattice_vector 0.0000000000000000 100.0000000000000000 0.0000000000000000
lattice_vector 0.0000000000000000 0.0000000000000000 100.0000000000000000
atom 0.0005678148806481 0.7535450485149162 0.1624370437488803 C
atom -0.0005680564974629 -0.7535708128617039 0.1624359641554917 C
atom 1.1891582743662945 1.4758990163348118 0.0558723707707156 C
atom -1.1869761300887416 1.4775622920693550 0.0556840097223810 C
atom 1.1869763522250663 -1.4775880658147369 0.0556871523688424 C
atom -1.1891587558265104 -1.4759247801622546 0.0558745213095149 C
atom 2.1904719956625751 2.0904219273032401 -0.1177744391074602 N
atom -2.1875394247151148 2.0932597102121369 -0.1181591343445199 N
atom 2.1875730562152449 -2.0932257963300080 -0.1181761918640858 N
atom -2.1905051345285660 -2.0903893553079049 -0.1157924458104796 N
homogeneous_field 0.0 0.0 0.0
set_vacuum_level 49.0000000000000000