lattice_vector 100.0000000000000000 0.0000000000000000 0.0000000000000000
lattice_vector 0.0000000000000000 100.0000000000000000 0.0000000000000000
lattice_vector 0.0000000000000000 0.0000000000000000 100.0000000000000000
atom 0.0032147750876840 0.7535450260507831 0.1624370319269292 C
atom -0.0032150955454117 -0.7535708438573694 0.1624359682415060 C
atom 1.1876720427871710 1.4768119195246048 0.0557396606865764 C
atom -1.1884623607171703 1.4766493406405852 0.0558167036392446 C
atom 1.1884625538854363 -1.4766751992229925 0.0558199084996395 C
atom -1.1876725549525404 -1.4768376955975131 0.0557417682519367 C
atom 2.1882268530044557 2.0913037055042145 -0.1178145879441987 N
atom -2.1897845594117573 2.0923778966119198 -0.1181189931072888 N
atom 2.1898182255294096 -2.0923439607908296 -0.1181360078643743 N
atom -2.1882599702593040 -2.0912712253885766 -0.1158326306057874 N
homogeneous_field 0.0 0.0 -0.0010000000000000
set_vacuum_level 49.0000000000000000