#=======================================================
# FHI-aims file: geometry.in
# Created using the Atomic Simulation Environment (ASE)
# Thu Nov 14 10:52:15 2024
#=======================================================
lattice_vector 100.0 0.0000000000000000 0.0000000000000000 
lattice_vector 0.0000000000000000 100.0 0.0000000000000000 
lattice_vector 0.0000000000000000 0.0000000000000000 100.0
atom -0.0000000073285289 0.7535450223557323 0.1624370310002732 C
atom -0.0000002424839600 -0.7535708393136957 0.1624359686452692 C
atom 1.1880673121277106 1.4767305128520789 0.0557787137102750 C
atom -1.1880670916293345 1.4767307480075118 0.0557776513552710 C
atom 1.1880673121277106 -1.4767565649654770 0.0557808384202758 C
atom -1.1880677970956279 -1.4767563298100441 0.0557808384202758 C
atom 2.1890059347196456 2.0918404484123645 -0.1179662594747271 N
atom -2.1890054790658375 2.0918411538786561 -0.1179673218297310 N
atom 2.1890390916354452 -2.0918072413570936 -0.1179843195097305 N
atom -2.1890391062925021 -2.0918079468233906 -0.1159843195097281 N
