lattice_vector 23.5155431200000002 0.0000000000000000 0.0000000000000000
lattice_vector 0.0000000000000000 23.5155431200000002 0.0000000000000000
lattice_vector 0.0000000000000000 0.0000000000000000 100.0000000000000000
atom -0.0000000000053846 0.0000000000934330 -0.0000000760396699 Mg
atom -0.0000000000002106 -2.0676690582425232 0.0000000500627589 N
atom 2.0676653597570214 0.0000000000683853 0.0000000500107653 N
atom 0.0000000000235166 2.0676690608141119 0.0000000500508853 N
atom -2.0676653601607402 0.0000000000639965 0.0000000500074223 N
atom 1.1072120064185851 -2.8867189186239588 -0.0000001846648367 C
atom -1.1072120064108604 -2.8867189186396991 -0.0000001846532411 C
atom 1.1072120010995519 2.8867189280593224 -0.0000001844094474 C
atom -1.1072120011332789 2.8867189279464749 -0.0000001844121737 C
atom 2.8867127781307160 -1.1072115865380583 -0.0000001850072979 C
atom 2.8867127784300703 1.1072115865293968 -0.0000001849415151 C
atom -2.8867127795987124 -1.1072115856996378 -0.0000001849589059 C
atom -2.8867127798861318 1.1072115858050544 -0.0000001849060007 C
atom 0.6851353972251027 -4.2707897949653537 0.0000027845539546 C
atom -0.6851353980522799 -4.2707897960101606 0.0000027845951368 C
atom 0.6851352484502397 4.2707896256621138 0.0000027820912978 C
atom -0.6851352511723905 4.2707896294035681 0.0000027821942046 C
atom 4.2707848623257210 -0.6851347138679501 0.0000027984480650 C
atom 4.2707848620146507 0.6851347135650454 0.0000027976137385 C
atom -4.2707848352424644 -0.6851346900974082 0.0000027978231850 C
atom -4.2707848352376905 0.6851346899919419 0.0000027969973378 C
atom 2.4381384325167046 -2.4381397535384290 0.0000001195695088 C
atom -2.4381384322759887 -2.4381397535331355 0.0000001195649201 C
atom -2.4381384313090315 2.4381397510046976 0.0000001194835524 C
atom 2.4381384312966978 2.4381397507114211 0.0000001194820885 C
atom 1.3505200439541691 -5.1283901598336392 -0.0000279151221597 H
atom -1.3505200340172634 -5.1283901472641444 -0.0000279150232467 H
atom 1.3505215319550208 5.1283920673875167 -0.0000278913917111 H
atom -1.3505214975067883 5.1283920226815622 -0.0000278922260912 H
atom 5.1283782080044027 -1.3505143788501472 -0.0000280511952002 H
atom 5.1283782085559606 1.3505143815375729 -0.0000280426005757 H
atom -5.1283785125583048 -1.3505146167356592 -0.0000280450590192 H
atom -5.1283785102090125 1.3505146169962430 -0.0000280363547964 H
atom 3.2096132295802891 3.2096102517159428 -0.0000015328597108 H
atom 3.2096132064000056 -3.2096102325373237 -0.0000015347829719 H
atom -3.2096132067271039 -3.2096102337200252 -0.0000015347386430 H
atom -3.2096132268443376 3.2096102498418517 0.0019984661550818 H
homogeneous_field 0.0 0.0 -0.0100000000000000
set_vacuum_level 49.0000000000000000