lattice_vector 100.0000000000000000 0.0000000000000000 0.0000000000000000
lattice_vector 0.0000000000000000 100.0000000000000000 0.0000000000000000
lattice_vector 0.0000000000000000 0.0000000000000000 100.0000000000000000
atom 0.0000322628897538 0.7535450228940234 0.1624370326636760 C
atom -0.0000325085670241 -0.7535708400622128 0.1624359646274941 C
atom 1.1878171102695356 1.4768824529164131 0.0535898877795664 C
atom -1.1883172948744940 1.4765788093084891 0.0579664783596039 C
atom 1.1883175386793425 -1.4766045994840549 0.0579695936959438 C
atom -1.1878175719137829 -1.4769082973888008 0.0535920880156229 C
atom 2.1893756915863150 2.0920114051220327 -0.1168675894030327 N
atom -2.1886357233447642 2.0916701983006574 -0.1190659919063619 N
atom 2.1886693097845815 -2.0916363007731471 -0.1190829470870174 N
atom -2.1894088899748114 -2.0919788882316284 -0.1148856915328861 N
homogeneous_field 0.0 0.0 0.0
set_vacuum_level 49.0000000000000000