lattice_vector 100.0000000000000000 0.0000000000000000 0.0000000000000000
lattice_vector 0.0000000000000000 100.0000000000000000 0.0000000000000000
lattice_vector 0.0000000000000000 0.0000000000000000 100.0000000000000000
atom -0.0032147897447418 0.7535450186606815 0.1624370300736173 C
atom 0.0032146105774917 -0.7535708347700221 0.1624359690490325 C
atom 1.1884625814682501 1.4766491061795530 0.0558177667339736 C
atom -1.1876718225414988 1.4768121553744384 0.0557385990712974 C
atom 1.1876720703699848 -1.4768379307079615 0.0557417683409121 C
atom -1.1884630392387154 -1.4766749640225751 0.0558199085886149 C
atom 2.1897850164348354 2.0923771913205145 -0.1181179310052554 N
atom -2.1882263987199178 2.0913044111453925 -0.1178156505521732 N
atom 2.1882599577414807 -2.0912705219233576 -0.1178326311550867 N
atom -2.1898182423257002 -2.0923446682582045 -0.1161360084136688 N
homogeneous_field 0.0 0.0 -0.0010000000000000
set_vacuum_level 49.0000000000000000