#=======================================================
# FHI-aims file: ./geometry.in
# Created using the Atomic Simulation Environment (ASE)
# Tue Nov 19 16:59:43 2024
#=======================================================
lattice_vector     23.51554312      0.00000000      0.0000000
lattice_vector     0.000000000      23.51554312      0.0000000
lattice_vector     0.000000000      0.00000000      100.0000000
atom -0.0000000000000000 -0.0000000000000000 -0.0000000000000000 Mg
atom 0.0000000000000000 -2.0676710599999999 -0.0000000000000000 N
atom 2.0676673700000001 0.0000000000000000 -0.0000000000000000 N
atom 0.0000000000000000 2.0676710599999999 -0.0000000000000000 N
atom -2.0676673700000001 -0.0000000000000000 -0.0000000000000000 N
atom 1.1072082100000000 -2.8867259800000000 -0.0000000000000000 C
atom -1.1072082100000000 -2.8867259800000000 -0.0000000000000000 C
atom 1.1072082100000000 2.8867259800000000 -0.0000000000000000 C
atom -1.1072082100000000 2.8867259800000000 -0.0000000000000000 C
atom 2.8867198699999999 -1.1072077700000000 -0.0000000000000000 C
atom 2.8867198699999999 1.1072077700000000 -0.0000000000000000 C
atom -2.8867198699999999 -1.1072077700000000 0.0000000000000000 C
atom -2.8867198699999999 1.1072077700000000 -0.0000000000000000 C
atom 0.6850271900000000 -4.2706667100000004 -0.0000000000000000 C
atom -0.6850271900000000 -4.2706667100000004 -0.0000000000000000 C
atom 0.6850271900000000 4.2706667100000004 -0.0000000000000000 C
atom -0.6850271900000000 4.2706667100000004 -0.0000000000000000 C
atom 4.2706612499999999 -0.6850260500000001 0.0000000000000000 C
atom 4.2706612499999999 0.6850260500000001 0.0000000000000000 C
atom -4.2706612499999999 -0.6850260500000001 0.0000000000000000 C
atom -4.2706612499999999 0.6850260500000001 0.0000000000000000 C
atom 2.4381354700000002 -2.4381368000000001 -0.0000000000000000 C
atom -2.4381354700000002 -2.4381368000000001 0.0000000000000000 C
atom -2.4381354700000002 2.4381368000000001 -0.0000000000000000 C
atom 2.4381354700000002 2.4381368000000001 -0.0000000000000000 C
atom 1.3516004900000000 -5.1297751299999996 -0.0000000000000000 H
atom -1.3516004900000000 -5.1297751299999996 0.0000000000000000 H
atom 1.3516004900000000 5.1297751299999996 0.0000000000000000 H
atom -1.3516004900000000 5.1297751299999996 0.0000000000000000 H
atom 5.1297690899999999 -1.3515994300000000 0.0000000000000000 H
atom 5.1297690899999999 1.3515994300000000 0.0000000000000000 H
atom -5.1297690899999999 -1.3515994300000000 0.0000000000000000 H
atom -5.1297690899999999 1.3515994300000000 0.0000000000000000 H
atom 3.2096434800000000 3.2096405200000002 0.0000000000000000 H
atom 3.2096434800000000 -3.2096405200000002 -0.0000000000000000 H
atom -3.2096434800000000 -3.2096405200000002 0.0000000000000000 H
atom -3.2096434800000000 3.2096405200000002 0.0020000000000000 H
