lattice_vector 100.0000000000000000 0.0000000000000000 0.0000000000000000
lattice_vector 0.0000000000000000 100.0000000000000000 0.0000000000000000
lattice_vector 0.0000000000000000 0.0000000000000000 100.0000000000000000
atom -0.0000322775468116 0.7535450218174412 0.1624370293368704 C
atom 0.0000320235991041 -0.7535708385651787 0.1624359726630443 C
atom 1.1883175139858855 1.4765785727877447 0.0579675396409836 C
atom -1.1878168883841751 1.4768826867065346 0.0535888243509381 C
atom 1.1878170855760786 -1.4769085304468992 0.0535920831446078 C
atom -1.1883180222774730 -1.4766043622312874 0.0579695888249287 C
atom 2.1886361778529762 2.0916694917026963 -0.1190649295464215 N
atom -2.1893752347869109 2.0920121094566548 -0.1168686517531001 N
atom 2.1894088734863089 -2.0919781819410401 -0.1168856919324436 N
atom -2.1886693226101928 -2.0916370054151527 -0.1170829474865701 N
homogeneous_field 0.0 0.0 0.0
set_vacuum_level 49.0000000000000000