lattice_vector 100.0000000000000000 0.0000000000000000 0.0000000000000000
lattice_vector 0.0000000000000000 100.0000000000000000 0.0000000000000000
lattice_vector 0.0000000000000000 0.0000000000000000 100.0000000000000000
atom -0.0006081375761772 0.7535450233420475 0.1624370305591515 C
atom 0.0006080313539079 -0.7535708375180171 0.1624359689695888 C
atom 1.1897674572171939 1.4778027486486403 0.0554732376900982 C
atom -1.1863669407361959 1.4756585076720976 0.0560831286409479 C
atom 1.1863667841679666 -1.4756841938088108 0.0560864038685009 C
atom -1.1897683348173551 -1.4778287085514470 0.0554752713007343 C
atom 2.1878355722335603 2.0911181016518108 -0.1177693288397936 N
atom -2.1901758452909807 2.0925635037745418 -0.1181642531646961 N
atom 2.1902097211754401 -2.0925296633056054 -0.1181813126242854 N
atom -2.1878684707670129 -2.0910855196802478 -0.1157873253237807 N
homogeneous_field 0.0 0.0 0.0
set_vacuum_level 49.0000000000000000