lattice_vector 34.9799999999999969 0.0000000000000000 0.0000000000000000
lattice_vector -17.4899999999999878 30.2935686243796631 0.0000000000000000
lattice_vector 0.0000000000000000 0.0000000000000000 100.0000000000000000
atom -9.5400000095431814 -14.6879994305638881 -1.5949999995462165 Mo
atom -7.9499999869191456 -13.7700007991878763 0.0003214072053747 S
atom -7.9499999884284227 -13.7700008605596569 -3.1903214144904375 S
atom -11.1300000095431812 -11.9339994305638886 -1.5949999995462165 Mo
atom -9.5399999869191454 -11.0160007991878750 0.0003214072053747 S
atom -9.5399999884284234 -11.0160008605596555 -3.1903214144904375 S
atom -12.7200000095431811 -9.1799994305638872 -1.5949999995462165 Mo
atom -11.1299999869191453 -8.2620007991878754 0.0003214072053747 S
atom -11.1299999884284233 -8.2620008605596560 -3.1903214144904375 S
atom -14.3100000095431810 -6.4259994305638868 -1.5949999995462165 Mo
atom -12.7199999869191451 -5.5080007991878750 0.0003214072053747 S
atom -12.7199999884284232 -5.5080008605596555 -3.1903214144904375 S
atom -15.9000000095431808 -3.6719994305638872 -1.5949999995462165 Mo
atom -14.3099999869191450 -2.7540007991878759 0.0003214072053747 S
atom -14.3099999884284230 -2.7540008605596560 -3.1903214144904375 S
atom -17.4900000095431807 -0.9179994305638877 -1.5949999995462165 Mo
atom -15.8999999869191448 -0.0000007991878744 0.0003214072053747 S
atom -15.8999999884284229 -0.0000008605596548 -3.1903214144904375 S
atom -19.0800000095431805 1.8360005694361137 -1.5949999995462165 Mo
atom -17.4899999869191447 2.7539992008121250 0.0003214072053747 S
atom -17.4899999884284227 2.7539991394403449 -3.1903214144904375 S
atom -20.6700000095431839 4.5900005694361115 -1.5949999995462165 Mo
atom -19.0799999869191446 5.5079992008121268 0.0003214072053747 S
atom -19.0799999884284226 5.5079991394403462 -3.1903214144904375 S
atom -22.2600000095431803 7.3440005694361128 -1.5949999995462165 Mo
atom -20.6699999869191480 8.2619992008121237 0.0003214072053747 S
atom -20.6699999884284260 8.2619991394403431 -3.1903214144904375 S
atom -23.8500000095431837 10.0980005694361132 -1.5949999995462165 Mo
atom -22.2599999869191443 11.0159992008121250 0.0003214072053747 S
atom -22.2599999884284223 11.0159991394403445 -3.1903214144904375 S
atom -25.4400000095431800 12.8520005694361110 -1.5949999995462165 Mo
atom -23.8499999869191477 13.7699992008121228 0.0003214072053747 S
atom -23.8499999884284257 13.7699991394403423 -3.1903214144904375 S
atom -6.3600000095431817 -14.6879994305638881 -1.5949999995462165 Mo
atom -4.7699999869191458 -13.7700007991878763 0.0003214072053747 S
atom -4.7699999884284230 -13.7700008605596569 -3.1903214144904375 S
atom -7.9500000095431815 -11.9339994305638886 -1.5949999995462165 Mo
atom -6.3599999869191457 -11.0160007991878750 0.0003214072053747 S
atom -6.3599999884284228 -11.0160008605596555 -3.1903214144904375 S
atom -9.5400000095431814 -9.1799994305638872 -1.5949999995462165 Mo
atom -7.9499999869191456 -8.2620007991878754 0.0003214072053747 S
atom -7.9499999884284227 -8.2620008605596560 -3.1903214144904375 S
atom -11.1300000095431812 -6.4259994305638868 -1.5949999995462165 Mo
atom -9.5399999869191454 -5.5080007991878750 0.0003214072053747 S
atom -9.5399999884284234 -5.5080008605596555 -3.1903214144904375 S
atom -12.7200000095431811 -3.6719994305638872 -1.5949999995462165 Mo
atom -11.1299999869191453 -2.7540007991878759 0.0003214072053747 S
atom -11.1299999884284233 -2.7540008605596560 -3.1903214144904375 S
atom -14.3100000095431810 -0.9179994305638877 -1.5949999995462165 Mo
atom -12.7199999869191451 -0.0000007991878744 0.0003214072053747 S
atom -12.7199999884284232 -0.0000008605596548 -3.1903214144904375 S
atom -15.9000000095431808 1.8360005694361137 -1.5949999995462165 Mo
atom -14.3099999869191450 2.7539992008121250 0.0003214072053747 S
atom -14.3099999884284230 2.7539991394403449 -3.1903214144904375 S
atom -17.4900000095431807 4.5900005694361115 -1.5949999995462165 Mo
atom -15.8999999869191448 5.5079992008121268 0.0003214072053747 S
atom -15.8999999884284229 5.5079991394403462 -3.1903214144904375 S
atom -19.0800000095431805 7.3440005694361128 -1.5949999995462165 Mo
atom -17.4899999869191447 8.2619992008121237 0.0003214072053747 S
atom -17.4899999884284227 8.2619991394403431 -3.1903214144904375 S
atom -20.6700000095431839 10.0980005694361132 -1.5949999995462165 Mo
atom -19.0799999869191446 11.0159992008121250 0.0003214072053747 S
atom -19.0799999884284226 11.0159991394403445 -3.1903214144904375 S
atom -22.2600000095431803 12.8520005694361110 -1.5949999995462165 Mo
atom -20.6699999869191480 13.7699992008121228 0.0003214072053747 S
atom -20.6699999884284260 13.7699991394403423 -3.1903214144904375 S
atom -3.1800000095431815 -14.6879994305638881 -1.5949999995462165 Mo
atom -1.5899999869191448 -13.7700007991878763 0.0003214072053747 S
atom -1.5899999884284226 -13.7700008605596569 -3.1903214144904375 S
atom -4.7700000095431818 -11.9339994305638886 -1.5949999995462165 Mo
atom -3.1799999869191446 -11.0160007991878750 0.0003214072053747 S
atom -3.1799999884284222 -11.0160008605596555 -3.1903214144904375 S
atom -6.3600000095431817 -9.1799994305638872 -1.5949999995462165 Mo
atom -4.7699999869191458 -8.2620007991878754 0.0003214072053747 S
atom -4.7699999884284230 -8.2620008605596560 -3.1903214144904375 S
atom -7.9500000095431815 -6.4259994305638868 -1.5949999995462165 Mo
atom -6.3599999869191457 -5.5080007991878750 0.0003214072053747 S
atom -6.3599999884284228 -5.5080008605596555 -3.1903214144904375 S
atom -9.5400000095431814 -3.6719994305638872 -1.5949999995462165 Mo
atom -7.9499999869191456 -2.7540007991878759 0.0003214072053747 S
atom -7.9499999884284227 -2.7540008605596560 -3.1903214144904375 S
atom -11.1300000095431812 -0.9179994305638877 -1.5949999995462165 Mo
atom -9.5399999869191454 -0.0000007991878744 0.0003214072053747 S
atom -9.5399999884284234 -0.0000008605596548 -3.1903214144904375 S
atom -12.7200000095431811 1.8360005694361137 -1.5949999995462165 Mo
atom -11.1299999869191453 2.7539992008121250 0.0003214072053747 S
atom -11.1299999884284233 2.7539991394403449 -3.1903214144904375 S
atom -14.3100000095431810 4.5900005694361115 -1.5949999995462165 Mo
atom -12.7199999869191451 5.5079992008121268 0.0003214072053747 S
atom -12.7199999884284232 5.5079991394403462 -3.1903214144904375 S
atom -15.9000000095431808 7.3440005694361128 -1.5949999995462165 Mo
atom -14.3099999869191450 8.2619992008121237 0.0003214072053747 S
atom -14.3099999884284230 8.2619991394403431 -3.1903214144904375 S
atom -17.4900000095431807 10.0980005694361132 -1.5949999995462165 Mo
atom -15.8999999869191448 11.0159992008121250 0.0003214072053747 S
atom -15.8999999884284229 11.0159991394403445 -3.1903214144904375 S
atom -19.0800000095431805 12.8520005694361110 -1.5949999995462165 Mo
atom -17.4899999869191447 13.7699992008121228 0.0003214072053747 S
atom -17.4899999884284227 13.7699991394403423 -3.1903214144904375 S
atom -0.0000000095431826 -14.6879994305638881 -1.5949999995462165 Mo
atom 1.5900000130808558 -13.7700007991878763 0.0003214072053747 S
atom 1.5900000115715780 -13.7700008605596569 -3.1903214144904375 S
atom -1.5900000095431814 -11.9339994305638886 -1.5949999995462165 Mo
atom 0.0000000130808541 -11.0160007991878750 0.0003214072053747 S
atom 0.0000000115715765 -11.0160008605596555 -3.1903214144904375 S
atom -3.1800000095431815 -9.1799994305638872 -1.5949999995462165 Mo
atom -1.5899999869191448 -8.2620007991878754 0.0003214072053747 S
atom -1.5899999884284226 -8.2620008605596560 -3.1903214144904375 S
atom -4.7700000095431818 -6.4259994305638868 -1.5949999995462165 Mo
atom -3.1799999869191446 -5.5080007991878750 0.0003214072053747 S
atom -3.1799999884284222 -5.5080008605596555 -3.1903214144904375 S
atom -6.3600000095431817 -3.6719994305638872 -1.5949999995462165 Mo
atom -4.7699999869191458 -2.7540007991878759 0.0003214072053747 S
atom -4.7699999884284230 -2.7540008605596560 -3.1903214144904375 S
atom -7.9500000095431815 -0.9179994305638877 -1.5949999995462165 Mo
atom -6.3599999869191457 -0.0000007991878744 0.0003214072053747 S
atom -6.3599999884284228 -0.0000008605596548 -3.1903214144904375 S
atom -9.5400000095431814 1.8360005694361137 -1.5949999995462165 Mo
atom -7.9499999869191456 2.7539992008121250 0.0003214072053747 S
atom -7.9499999884284227 2.7539991394403449 -3.1903214144904375 S
atom -11.1300000095431812 4.5900005694361115 -1.5949999995462165 Mo
atom -9.5399999869191454 5.5079992008121268 0.0003214072053747 S
atom -9.5399999884284234 5.5079991394403462 -3.1903214144904375 S
atom -12.7200000095431811 7.3440005694361128 -1.5949999995462165 Mo
atom -11.1299999869191453 8.2619992008121237 0.0003214072053747 S
atom -11.1299999884284233 8.2619991394403431 -3.1903214144904375 S
atom -14.3100000095431810 10.0980005694361132 -1.5949999995462165 Mo
atom -12.7199999869191451 11.0159992008121250 0.0003214072053747 S
atom -12.7199999884284232 11.0159991394403445 -3.1903214144904375 S
atom -15.9000000095431808 12.8520005694361110 -1.5949999995462165 Mo
atom -14.3099999869191450 13.7699992008121228 0.0003214072053747 S
atom -14.3099999884284230 13.7699991394403423 -3.1903214144904375 S
atom 3.1799999904568188 -14.6879994305638881 -1.5949999995462165 Mo
atom 4.7700000130808551 -13.7700007991878763 0.0003214072053747 S
atom 4.7700000115715779 -13.7700008605596569 -3.1903214144904375 S
atom 1.5899999904568192 -11.9339994305638886 -1.5949999995462165 Mo
atom 3.1800000130808557 -11.0160007991878750 0.0003214072053747 S
atom 3.1800000115715781 -11.0160008605596555 -3.1903214144904375 S
atom -0.0000000095431826 -9.1799994305638872 -1.5949999995462165 Mo
atom 1.5900000130808558 -8.2620007991878754 0.0003214072053747 S
atom 1.5900000115715780 -8.2620008605596560 -3.1903214144904375 S
atom -1.5900000095431814 -6.4259994305638868 -1.5949999995462165 Mo
atom 0.0000000130808541 -5.5080007991878750 0.0003214072053747 S
atom 0.0000000115715765 -5.5080008605596555 -3.1903214144904375 S
atom -3.1800000095431815 -3.6719994305638872 -1.5949999995462165 Mo
atom -1.5899999869191448 -2.7540007991878759 0.0003214072053747 S
atom -1.5899999884284226 -2.7540008605596560 -3.1903214144904375 S
atom -4.7700000095431818 -0.9179994305638877 -1.5949999995462165 Mo
atom -3.1799999869191446 -0.0000007991878744 0.0003214072053747 S
atom -3.1799999884284222 -0.0000008605596548 -3.1903214144904375 S
atom -6.3600000095431817 1.8360005694361137 -1.5949999995462165 Mo
atom -4.7699999869191458 2.7539992008121250 0.0003214072053747 S
atom -4.7699999884284230 2.7539991394403449 -3.1903214144904375 S
atom -7.9500000095431815 4.5900005694361115 -1.5949999995462165 Mo
atom -6.3599999869191457 5.5079992008121268 0.0003214072053747 S
atom -6.3599999884284228 5.5079991394403462 -3.1903214144904375 S
atom -9.5400000095431814 7.3440005694361128 -1.5949999995462165 Mo
atom -7.9499999869191456 8.2619992008121237 0.0003214072053747 S
atom -7.9499999884284227 8.2619991394403431 -3.1903214144904375 S
atom -11.1300000095431812 10.0980005694361132 -1.5949999995462165 Mo
atom -9.5399999869191454 11.0159992008121250 0.0003214072053747 S
atom -9.5399999884284234 11.0159991394403445 -3.1903214144904375 S
atom -12.7200000095431811 12.8520005694361110 -1.5949999995462165 Mo
atom -11.1299999869191453 13.7699992008121228 0.0003214072053747 S
atom -11.1299999884284233 13.7699991394403423 -3.1903214144904375 S
atom 6.3599999904568190 -14.6879994305638881 -1.5949999995462165 Mo
atom 7.9500000130808530 -13.7700007991878763 0.0003214072053747 S
atom 7.9500000115715759 -13.7700008605596569 -3.1903214144904375 S
atom 4.7699999904568191 -11.9339994305638886 -1.5949999995462165 Mo
atom 6.3600000130808549 -11.0160007991878750 0.0003214072053747 S
atom 6.3600000115715778 -11.0160008605596555 -3.1903214144904375 S
atom 3.1799999904568188 -9.1799994305638872 -1.5949999995462165 Mo
atom 4.7700000130808551 -8.2620007991878754 0.0003214072053747 S
atom 4.7700000115715779 -8.2620008605596560 -3.1903214144904375 S
atom 1.5899999904568192 -6.4259994305638868 -1.5949999995462165 Mo
atom 3.1800000130808557 -5.5080007991878750 0.0003214072053747 S
atom 3.1800000115715781 -5.5080008605596555 -3.1903214144904375 S
atom -0.0000000095431826 -3.6719994305638872 -1.5949999995462165 Mo
atom 1.5900000130808558 -2.7540007991878759 0.0003214072053747 S
atom 1.5900000115715780 -2.7540008605596560 -3.1903214144904375 S
atom -1.5900000095431814 -0.9179994305638877 -1.5949999995462165 Mo
atom 0.0000000130808541 -0.0000007991878744 0.0003214072053747 S
atom 0.0000000115715765 -0.0000008605596548 -3.1903214144904375 S
atom -3.1800000095431815 1.8360005694361137 -1.5949999995462165 Mo
atom -1.5899999869191448 2.7539992008121250 0.0003214072053747 S
atom -1.5899999884284226 2.7539991394403449 -3.1903214144904375 S
atom -4.7700000095431818 4.5900005694361115 -1.5949999995462165 Mo
atom -3.1799999869191446 5.5079992008121268 0.0003214072053747 S
atom -3.1799999884284222 5.5079991394403462 -3.1903214144904375 S
atom -6.3600000095431817 7.3440005694361128 -1.5949999995462165 Mo
atom -4.7699999869191458 8.2619992008121237 0.0003214072053747 S
atom -4.7699999884284230 8.2619991394403431 -3.1903214144904375 S
atom -7.9500000095431815 10.0980005694361132 -1.5949999995462165 Mo
atom -6.3599999869191457 11.0159992008121250 0.0003214072053747 S
atom -6.3599999884284228 11.0159991394403445 -3.1903214144904375 S
atom -9.5400000095431814 12.8520005694361110 -1.5949999995462165 Mo
atom -7.9499999869191456 13.7699992008121228 0.0003214072053747 S
atom -7.9499999884284227 13.7699991394403423 -3.1903214144904375 S
atom 9.5399999904568169 -14.6879994305638881 -1.5949999995462165 Mo
atom 11.1300000130808563 -13.7700007991878763 0.0003214072053747 S
atom 11.1300000115715783 -13.7700008605596569 -3.1903214144904375 S
atom 7.9499999904568170 -11.9339994305638886 -1.5949999995462165 Mo
atom 9.5400000130808529 -11.0160007991878750 0.0003214072053747 S
atom 9.5400000115715748 -11.0160008605596555 -3.1903214144904375 S
atom 6.3599999904568190 -9.1799994305638872 -1.5949999995462165 Mo
atom 7.9500000130808530 -8.2620007991878754 0.0003214072053747 S
atom 7.9500000115715759 -8.2620008605596560 -3.1903214144904375 S
atom 4.7699999904568191 -6.4259994305638868 -1.5949999995462165 Mo
atom 6.3600000130808549 -5.5080007991878750 0.0003214072053747 S
atom 6.3600000115715778 -5.5080008605596555 -3.1903214144904375 S
atom 3.1799999904568188 -3.6719994305638872 -1.5949999995462165 Mo
atom 4.7700000130808551 -2.7540007991878759 0.0003214072053747 S
atom 4.7700000115715779 -2.7540008605596560 -3.1903214144904375 S
atom 1.5899999904568192 -0.9179994305638877 -1.5949999995462165 Mo
atom 3.1800000130808557 -0.0000007991878744 0.0003214072053747 S
atom 3.1800000115715781 -0.0000008605596548 -3.1903214144904375 S
atom -0.0000000095431826 1.8360005694361137 -1.5949999995462165 Mo
atom 1.5900000130808558 2.7539992008121250 0.0003214072053747 S
atom 1.5900000115715780 2.7539991394403449 -3.1903214144904375 S
atom -1.5900000095431814 4.5900005694361115 -1.5949999995462165 Mo
atom 0.0000000130808541 5.5079992008121268 0.0003214072053747 S
atom 0.0000000115715765 5.5079991394403462 -3.1903214144904375 S
atom -3.1800000095431815 7.3440005694361128 -1.5949999995462165 Mo
atom -1.5899999869191448 8.2619992008121237 0.0003214072053747 S
atom -1.5899999884284226 8.2619991394403431 -3.1903214144904375 S
atom -4.7700000095431818 10.0980005694361132 -1.5949999995462165 Mo
atom -3.1799999869191446 11.0159992008121250 0.0003214072053747 S
atom -3.1799999884284222 11.0159991394403445 -3.1903214144904375 S
atom -6.3600000095431817 12.8520005694361110 -1.5949999995462165 Mo
atom -4.7699999869191458 13.7699992008121228 0.0003214072053747 S
atom -4.7699999884284230 13.7699991394403423 -3.1903214144904375 S
atom 12.7199999904568202 -14.6879994305638881 -1.5949999995462165 Mo
atom 14.3100000130808560 -13.7700007991878763 0.0003214072053747 S
atom 14.3100000115715780 -13.7700008605596569 -3.1903214144904375 S
atom 11.1299999904568203 -11.9339994305638886 -1.5949999995462165 Mo
atom 12.7200000130808561 -11.0160007991878750 0.0003214072053747 S
atom 12.7200000115715781 -11.0160008605596555 -3.1903214144904375 S
atom 9.5399999904568169 -9.1799994305638872 -1.5949999995462165 Mo
atom 11.1300000130808563 -8.2620007991878754 0.0003214072053747 S
atom 11.1300000115715783 -8.2620008605596560 -3.1903214144904375 S
atom 7.9499999904568170 -6.4259994305638868 -1.5949999995462165 Mo
atom 9.5400000130808529 -5.5080007991878750 0.0003214072053747 S
atom 9.5400000115715748 -5.5080008605596555 -3.1903214144904375 S
atom 6.3599999904568190 -3.6719994305638872 -1.5949999995462165 Mo
atom 7.9500000130808530 -2.7540007991878759 0.0003214072053747 S
atom 7.9500000115715759 -2.7540008605596560 -3.1903214144904375 S
atom 4.7699999904568191 -0.9179994305638877 -1.5949999995462165 Mo
atom 6.3600000130808549 -0.0000007991878744 0.0003214072053747 S
atom 6.3600000115715778 -0.0000008605596548 -3.1903214144904375 S
atom 3.1799999904568188 1.8360005694361137 -1.5949999995462165 Mo
atom 4.7700000130808551 2.7539992008121250 0.0003214072053747 S
atom 4.7700000115715779 2.7539991394403449 -3.1903214144904375 S
atom 1.5899999904568192 4.5900005694361115 -1.5949999995462165 Mo
atom 3.1800000130808557 5.5079992008121268 0.0003214072053747 S
atom 3.1800000115715781 5.5079991394403462 -3.1903214144904375 S
atom -0.0000000095431826 7.3440005694361128 -1.5949999995462165 Mo
atom 1.5900000130808558 8.2619992008121237 0.0003214072053747 S
atom 1.5900000115715780 8.2619991394403431 -3.1903214144904375 S
atom -1.5900000095431814 10.0980005694361132 -1.5949999995462165 Mo
atom 0.0000000130808541 11.0159992008121250 0.0003214072053747 S
atom 0.0000000115715765 11.0159991394403445 -3.1903214144904375 S
atom -3.1800000095431815 12.8520005694361110 -1.5949999995462165 Mo
atom -1.5899999869191448 13.7699992008121228 0.0003214072053747 S
atom -1.5899999884284226 13.7699991394403423 -3.1903214144904375 S
atom 15.8999999904568199 -14.6879994305638881 -1.5949999995462165 Mo
atom 17.4900000130808557 -13.7700007991878763 0.0003214072053747 S
atom 17.4900000115715777 -13.7700008605596569 -3.1903214144904375 S
atom 14.3099999904568200 -11.9339994305638886 -1.5949999995462165 Mo
atom 15.9000000130808559 -11.0160007991878750 0.0003214072053747 S
atom 15.9000000115715778 -11.0160008605596555 -3.1903214144904375 S
atom 12.7199999904568202 -9.1799994305638872 -1.5949999995462165 Mo
atom 14.3100000130808560 -8.2620007991878754 0.0003214072053747 S
atom 14.3100000115715780 -8.2620008605596560 -3.1903214144904375 S
atom 11.1299999904568203 -6.4259994305638868 -1.5949999995462165 Mo
atom 12.7200000130808561 -5.5080007991878750 0.0003214072053747 S
atom 12.7200000115715781 -5.5080008605596555 -3.1903214144904375 S
atom 9.5399999904568169 -3.6719994305638872 -1.5949999995462165 Mo
atom 11.1300000130808563 -2.7540007991878759 0.0003214072053747 S
atom 11.1300000115715783 -2.7540008605596560 -3.1903214144904375 S
atom 7.9499999904568170 -0.9179994305638877 -1.5949999995462165 Mo
atom 9.5400000130808529 -0.0000007991878744 0.0003214072053747 S
atom 9.5400000115715748 -0.0000008605596548 -3.1903214144904375 S
atom 6.3599999904568190 1.8360005694361137 -1.5949999995462165 Mo
atom 7.9500000130808530 2.7539992008121250 0.0003214072053747 S
atom 7.9500000115715759 2.7539991394403449 -3.1903214144904375 S
atom 4.7699999904568191 4.5900005694361115 -1.5949999995462165 Mo
atom 6.3600000130808549 5.5079992008121268 0.0003214072053747 S
atom 6.3600000115715778 5.5079991394403462 -3.1903214144904375 S
atom 3.1799999904568188 7.3440005694361128 -1.5949999995462165 Mo
atom 4.7700000130808551 8.2619992008121237 0.0003214072053747 S
atom 4.7700000115715779 8.2619991394403431 -3.1903214144904375 S
atom 1.5899999904568192 10.0980005694361132 -1.5949999995462165 Mo
atom 3.1800000130808557 11.0159992008121250 0.0003214072053747 S
atom 3.1800000115715781 11.0159991394403445 -3.1903214144904375 S
atom -0.0000000095431826 12.8520005694361110 -1.5949999995462165 Mo
atom 1.5900000130808558 13.7699992008121228 0.0003214072053747 S
atom 1.5900000115715780 13.7699991394403423 -3.1903214144904375 S
atom 19.0799999904568196 -14.6879994305638881 -1.5949999995462165 Mo
atom 20.6700000130808554 -13.7700007991878763 0.0003214072053747 S
atom 20.6700000115715774 -13.7700008605596569 -3.1903214144904375 S
atom 17.4899999904568197 -11.9339994305638886 -1.5949999995462165 Mo
atom 19.0800000130808556 -11.0160007991878750 0.0003214072053747 S
atom 19.0800000115715775 -11.0160008605596555 -3.1903214144904375 S
atom 15.8999999904568199 -9.1799994305638872 -1.5949999995462165 Mo
atom 17.4900000130808557 -8.2620007991878754 0.0003214072053747 S
atom 17.4900000115715777 -8.2620008605596560 -3.1903214144904375 S
atom 14.3099999904568200 -6.4259994305638868 -1.5949999995462165 Mo
atom 15.9000000130808559 -5.5080007991878750 0.0003214072053747 S
atom 15.9000000115715778 -5.5080008605596555 -3.1903214144904375 S
atom 12.7199999904568202 -3.6719994305638872 -1.5949999995462165 Mo
atom 14.3100000130808560 -2.7540007991878759 0.0003214072053747 S
atom 14.3100000115715780 -2.7540008605596560 -3.1903214144904375 S
atom 11.1299999904568203 -0.9179994305638877 -1.5949999995462165 Mo
atom 12.7200000130808561 -0.0000007991878744 0.0003214072053747 S
atom 12.7200000115715781 -0.0000008605596548 -3.1903214144904375 S
atom 9.5399999904568169 1.8360005694361137 -1.5949999995462165 Mo
atom 11.1300000130808563 2.7539992008121250 0.0003214072053747 S
atom 11.1300000115715783 2.7539991394403449 -3.1903214144904375 S
atom 7.9499999904568170 4.5900005694361115 -1.5949999995462165 Mo
atom 9.5400000130808529 5.5079992008121268 0.0003214072053747 S
atom 9.5400000115715748 5.5079991394403462 -3.1903214144904375 S
atom 6.3599999904568190 7.3440005694361128 -1.5949999995462165 Mo
atom 7.9500000130808530 8.2619992008121237 0.0003214072053747 S
atom 7.9500000115715759 8.2619991394403431 -3.1903214144904375 S
atom 4.7699999904568191 10.0980005694361132 -1.5949999995462165 Mo
atom 6.3600000130808549 11.0159992008121250 0.0003214072053747 S
atom 6.3600000115715778 11.0159991394403445 -3.1903214144904375 S
atom 3.1799999904568188 12.8520005694361110 -1.5949999995462165 Mo
atom 4.7700000130808551 13.7699992008121228 0.0003214072053747 S
atom 4.7700000115715779 13.7699991394403423 -3.1903214144904375 S
atom 22.2599999904568193 -14.6879994305638881 -1.5949999995462165 Mo
atom 23.8500000130808552 -13.7700007991878763 0.0003214072053747 S
atom 23.8500000115715771 -13.7700008605596569 -3.1903214144904375 S
atom 20.6699999904568195 -11.9339994305638886 -1.5949999995462165 Mo
atom 22.2600000130808553 -11.0160007991878750 0.0003214072053747 S
atom 22.2600000115715773 -11.0160008605596555 -3.1903214144904375 S
atom 19.0799999904568196 -9.1799994305638872 -1.5949999995462165 Mo
atom 20.6700000130808554 -8.2620007991878754 0.0003214072053747 S
atom 20.6700000115715774 -8.2620008605596560 -3.1903214144904375 S
atom 17.4899999904568197 -6.4259994305638868 -1.5949999995462165 Mo
atom 19.0800000130808556 -5.5080007991878750 0.0003214072053747 S
atom 19.0800000115715775 -5.5080008605596555 -3.1903214144904375 S
atom 15.8999999904568199 -3.6719994305638872 -1.5949999995462165 Mo
atom 17.4900000130808557 -2.7540007991878759 0.0003214072053747 S
atom 17.4900000115715777 -2.7540008605596560 -3.1903214144904375 S
atom 14.3099999904568200 -0.9179994305638877 -1.5949999995462165 Mo
atom 15.9000000130808559 -0.0000007991878744 0.0003214072053747 S
atom 15.9000000115715778 -0.0000008605596548 -3.1903214144904375 S
atom 12.7199999904568202 1.8360005694361137 -1.5949999995462165 Mo
atom 14.3100000130808560 2.7539992008121250 0.0003214072053747 S
atom 14.3100000115715780 2.7539991394403449 -3.1903214144904375 S
atom 11.1299999904568203 4.5900005694361115 -1.5949999995462165 Mo
atom 12.7200000130808561 5.5079992008121268 0.0003214072053747 S
atom 12.7200000115715781 5.5079991394403462 -3.1903214144904375 S
atom 9.5399999904568169 7.3440005694361128 -1.5949999995462165 Mo
atom 11.1300000130808563 8.2619992008121237 0.0003214072053747 S
atom 11.1300000115715783 8.2619991394403431 -3.1903214144904375 S
atom 7.9499999904568170 10.0980005694361132 -1.5949999995462165 Mo
atom 9.5400000130808529 11.0159992008121250 0.0003214072053747 S
atom 9.5400000115715748 11.0159991394403445 -3.1903214144904375 S
atom 6.3599999904568190 12.8520005694361110 -1.5949999995462165 Mo
atom 7.9500000130808530 13.7699992008121228 0.0003214072053747 S
atom 7.9500000115715759 13.7699991394403423 -3.1903214144904375 S
homogeneous_field 0.0 0.0 -0.1000000000000000
set_vacuum_level 49.0000000000000000