lattice_vector 100.0000000000000000 0.0000000000000000 0.0000000000000000
lattice_vector 0.0000000000000000 100.0000000000000000 0.0000000000000000
lattice_vector 0.0000000000000000 0.0000000000000000 100.0000000000000000
atom 0.0015456639789887 0.7535450337088448 0.1624370324932379 C
atom 0.0015454338808208 -0.7535708282289474 0.1624359579023329 C
atom 1.1896363590899937 1.4766630195793762 0.0558060067381673 C
atom -1.1864980464719341 1.4767982614894473 0.0557503686312886 C
atom 1.1896363681945570 -1.4766890447502177 0.0558081180336853 C
atom -1.1864987408156951 -1.4768238300127361 0.0557535404363031 C
atom 2.1906098511346950 2.0917224473267213 -0.1179244459553762 N
atom -2.1874015699190346 2.0919591681422096 -0.1180091184584856 N
atom 2.1906430104291097 -2.0916892142377503 -0.1179425266624222 N
atom -2.1874351844966902 -2.0919259588748469 -0.1160261285438716 N
homogeneous_field 0.0 0.0 -0.0010000000000000
set_vacuum_level 49.0000000000000000