lattice_vector 100.0000000000000000 0.0000000000000000 0.0000000000000000
lattice_vector 0.0000000000000000 100.0000000000000000 0.0000000000000000
lattice_vector 0.0000000000000000 0.0000000000000000 100.0000000000000000
atom -0.0000000008537498 0.7535196298905723 0.1648153632012706 C
atom -0.0000002354467420 -0.7535455717364876 0.1648148922473061 C
atom 1.1877893079267905 1.4769730524613451 0.0568894830684184 C
atom -1.1877890771035531 1.4769732750248350 0.0568883946609216 C
atom 1.1877893771145127 -1.4769990867266571 0.0568921082544182 C
atom -1.1877898570573786 -1.4769988606745590 0.0568922038304276 C
atom 2.1880536125520504 2.0929062267723624 -0.1178764368479717 N
atom -2.1880531556375833 2.0929069021861664 -0.1178775331421447 N
atom 2.1880870840145872 -2.0928726792395071 -0.1178940075170823 N
atom -2.1880870979082774 -2.0928734013232444 -0.1158938427889419 N
homogeneous_field 0.0 0.0 -0.0010000000000000
set_vacuum_level 49.0000000000000000