lattice_vector 100.0000000000000000 0.0000000000000000 0.0000000000000000
lattice_vector 0.0000000000000000 100.0000000000000000 0.0000000000000000
lattice_vector 0.0000000000000000 0.0000000000000000 100.0000000000000000
atom 0.0006821082908337 0.7535450215979500 0.1624370314002606 C
atom 0.0006817603109119 -0.7535708375957623 0.1624359690499526 C
atom 1.1863686632936121 1.4756574949105961 0.0560899265574874 C
atom -1.1897657450863091 1.4778037696218935 0.0554664374883102 C
atom 1.1863689640005819 -1.4756838411683793 0.0560920171387848 C
atom -1.1897661556448740 -1.4778290615090066 0.0554696579273593 C
atom 2.1901632684878627 2.0925522017839460 -0.1181636172098514 N
atom -2.1878481423216596 2.0911293979513075 -0.1177699635360092 N
atom 2.1901962246614608 -2.0925187827101683 -0.1181816605354037 N
atom -2.1878819668307279 -2.0910964000767942 -0.1157869773238348 N
homogeneous_field 0.0 0.0 0.0
set_vacuum_level 49.0000000000000000