lattice_vector 100.0000000000000000 0.0000000000000000 0.0000000000000000
lattice_vector 0.0000000000000000 100.0000000000000000 0.0000000000000000
lattice_vector 0.0000000000000000 0.0000000000000000 100.0000000000000000
atom -0.0000000062275880 0.7539760262545219 0.1623508207209435 C
atom -0.0000002411487373 -0.7540017655441625 0.1623497739821818 C
atom 1.1863326155244149 1.4756714736766674 0.0560563811824112 C
atom -1.1863324011996681 1.4756717118560034 0.0560553180426950 C
atom 1.1863328626534724 -1.4756977854385767 0.0560584849346650 C
atom -1.1863333579350512 -1.4756975553372502 0.0560584831792412 C
atom 2.1901813256820448 2.0925649874255816 -0.1181666240919401 N
atom -2.1901808656531996 2.0925656908914307 -0.1181676857570021 N
atom 2.1902143234710945 -2.0925315922565186 -0.1181846732259322 N
atom -2.1902143304563273 -2.0925322943520013 -0.1161846719855945 N
homogeneous_field 0.0 0.0 0.0
set_vacuum_level 49.0000000000000000