lattice_vector 100.0000000000000000 0.0000000000000000 0.0000000000000000
lattice_vector 0.0000000000000000 100.0000000000000000 0.0000000000000000
lattice_vector 0.0000000000000000 0.0000000000000000 100.0000000000000000
atom -0.0000000057395162 0.7547498938576597 0.1622650068848986 C
atom -0.0000002351130652 -0.7523659700343690 0.1626081946723178 C
atom 1.1883525797048646 1.4773383664519955 0.0550036540933791 C
atom -1.1883523605934865 1.4773385975681799 0.0550026059581756 C
atom 1.1877819913727865 -1.4761486477906673 0.0565553579875887 C
atom -1.1877824623413857 -1.4761484153761388 0.0565553726785065 C
atom 2.1902453657061525 2.0907559835008978 -0.1192881723842952 N
atom -2.1902449104008381 2.0907566907630892 -0.1192892101522535 N
atom 2.1877996038309093 -2.0928916747676345 -0.1166636407638337 N
atom -2.1877996103295834 -2.0928923725227686 -0.1146636150921837 N
homogeneous_field 0.0 0.0 -0.0010000000000000
set_vacuum_level 49.0000000000000000