lattice_vector 100.0000000000000000 0.0000000000000000 0.0000000000000000
lattice_vector 0.0000000000000000 100.0000000000000000 0.0000000000000000
lattice_vector 0.0000000000000000 0.0000000000000000 100.0000000000000000
atom -0.0000000365629424 0.7535440551100941 0.1605480889364790 C
atom -0.0000002720246098 -0.7535700281213392 0.1605474184106476 C
atom 1.1878915975100681 1.4772326473135240 0.0549605979205366 C
atom -1.1878913979906993 1.4772329215749338 0.0549594450052976 C
atom 1.1878916827751167 -1.4772587154932693 0.0549631524288081 C
atom -1.1878921877804711 -1.4772585104230187 0.0549630203842043 C
atom 2.1882309002804199 2.0935473162509646 -0.1179366157169002 N
atom -2.1882304205635710 2.0935481159037819 -0.1179378465753517 N
atom 2.1882644595853731 -2.0935137776449197 -0.1179542327572273 N
atom -2.1882644525952157 -2.0935145552284098 -0.1159544702352214 N
homogeneous_field 0.0 0.0 0.0
set_vacuum_level 49.0000000000000000