lattice_vector 100.0000000000000000 0.0000000000000000 0.0000000000000000
lattice_vector 0.0000000000000000 100.0000000000000000 0.0000000000000000
lattice_vector 0.0000000000000000 0.0000000000000000 100.0000000000000000
atom 0.0000000219058846 0.7535459896013704 0.1643259730640675 C
atom -0.0000002129433102 -0.7535716505060522 0.1643245188798908 C
atom 1.1882430267453530 1.4762283783906338 0.0565968295000134 C
atom -1.1882427852679698 1.4762285744400898 0.0565958577052444 C
atom 1.1882429414803044 -1.4762544144376848 0.0565985244117435 C
atom -1.1882434064107847 -1.4762541491970695 0.0565986564563473 C
atom 2.1897809691588712 2.0901335805737644 -0.1179959032325540 N
atom -2.1897805375681041 2.0901341918535303 -0.1179967970841103 N
atom 2.1898137236855173 -2.0901007050692675 -0.1180144062622337 N
atom -2.1898137599897884 -2.0901013384183713 -0.1160141687842347 N
homogeneous_field 0.0 0.0 0.0
set_vacuum_level 49.0000000000000000