lattice_vector 100.0000000000000000 0.0000000000000000 0.0000000000000000
lattice_vector 0.0000000000000000 100.0000000000000000 0.0000000000000000
lattice_vector 0.0000000000000000 0.0000000000000000 100.0000000000000000
atom -0.0015456786360465 0.7535450110026197 0.1624370295073085 C
atom -0.0015459188487408 -0.7535708503984441 0.1624359793882055 C
atom 1.1864982651654274 1.4767980061247816 0.0557514206823827 C
atom -1.1896361367867350 1.4766632345255764 0.0558049340792534 C
atom 1.1864982560608641 -1.4768240851807364 0.0557535588068663 C
atom -1.1896368533755608 -1.4766888296073521 0.0558081364042485 C
atom 2.1874020183045961 2.0919584494980077 -0.1180080729940780 N
atom -2.1906093882126405 2.0917231396151026 -0.1179255252009764 N
atom 2.1874351728417807 -2.0919252684764369 -0.1180261123570387 N
atom -2.1906430280883140 -2.0916899347719342 -0.1159425104755846 N
homogeneous_field 0.0 0.0 0.0
set_vacuum_level 49.0000000000000000