lattice_vector 100.0000000000000000 0.0000000000000000 0.0000000000000000
lattice_vector 0.0000000000000000 100.0000000000000000 0.0000000000000000
lattice_vector 0.0000000000000000 0.0000000000000000 100.0000000000000000
atom -0.0000000069048017 0.7538516914528975 0.1609368889622899 C
atom -0.0000002429823283 -0.7538775772962513 0.1609361508586219 C
atom 1.1882477473087008 1.4776097626264257 0.0576278302275559 C
atom -1.1882475256114986 1.4776100037482929 0.0576267784004852 C
atom 1.1882477349997591 -1.4776358077312319 0.0576296607373665 C
atom -1.1882482193858139 -1.4776355783850319 0.0576296774408414 C
atom 2.1892998442179317 2.0918314799876727 -0.1188422195353906 N
atom -2.1892993896749218 2.0918321834779015 -0.1188432869717375 N
atom 2.1893329752491586 -2.0917982444062742 -0.1188601442548249 N
atom -2.1893329904511138 -2.0917989475813443 -0.1168601533044032 N
homogeneous_field 0.0 0.0 -0.0010000000000000
set_vacuum_level 49.0000000000000000