lattice_vector 100.0000000000000000 0.0000000000000000 0.0000000000000000
lattice_vector 0.0000000000000000 100.0000000000000000 0.0000000000000000
lattice_vector 0.0000000000000000 0.0000000000000000 100.0000000000000000
atom -0.0000000076689864 0.7525842646176519 0.1613814759056462 C
atom -0.0000002420192708 -0.7526100116263729 0.1613806811013651 C
atom 1.1881086588569310 1.4749261522639441 0.0564580932494423 C
atom -1.1881084396258774 1.4749263911322521 0.0564570359787859 C
atom 1.1881085938368456 -1.4749521470798972 0.0564599300459195 C
atom -1.1881090795236477 -1.4749519090154930 0.0564599322645432 C
atom 2.1878163927238217 2.0915388397853576 -0.1180480436823618 N
atom -2.1878159382626992 2.0915395452735894 -0.1180491089413184 N
atom 2.1878495851136588 -2.0915057149952636 -0.1180659831371267 N
atom -2.1878495961464446 -2.0915064198410036 -0.1160659840650590 N
homogeneous_field 0.0 0.0 -0.0010000000000000
set_vacuum_level 49.0000000000000000