#=======================================================
# FHI-aims file: ./geometry.in
# Created using the Atomic Simulation Environment (ASE)
# Fri Nov 22 10:54:39 2024
#=======================================================
lattice_vector 23.5155431200000002 0.0000000000000000 0.0000000000000000 
lattice_vector 0.0000000000000000 23.5155431200000002 0.0000000000000000 
lattice_vector 0.0000000000000000 0.0000000000000000 106.2355000000000018 
atom_frac -0.3125000104186409 -0.4375017190757532 -0.0777437321799210 Ag
    constrain_relaxation .true.
atom_frac -0.1875000104186409 -0.4375017190757532 -0.0777437321799210 Ag
    constrain_relaxation .true.
atom_frac -0.0625000104186409 -0.4375017190757532 -0.0777437321799210 Ag
    constrain_relaxation .true.
atom_frac 0.0624999895813591 -0.4375017190757532 -0.0777437321799210 Ag
    constrain_relaxation .true.
atom_frac 0.1874999895813591 -0.4375017190757532 -0.0777437321799210 Ag
    constrain_relaxation .true.
atom_frac 0.3124999895813591 -0.4375017190757532 -0.0777437321799210 Ag
    constrain_relaxation .true.
atom_frac 0.4374999895813591 -0.4375017190757532 -0.0777437321799210 Ag
    constrain_relaxation .true.
atom_frac 0.5624999895813592 -0.4375017190757532 -0.0777437321799210 Ag
    constrain_relaxation .true.
atom_frac -0.3125000104186409 -0.3125017190757532 -0.0777437321799210 Ag
    constrain_relaxation .true.
atom_frac -0.1875000104186409 -0.3125017190757532 -0.0777437321799210 Ag
    constrain_relaxation .true.
atom_frac -0.0625000104186409 -0.3125017190757532 -0.0777437321799210 Ag
    constrain_relaxation .true.
atom_frac 0.0624999895813591 -0.3125017190757532 -0.0777437321799210 Ag
    constrain_relaxation .true.
atom_frac 0.1874999895813591 -0.3125017190757532 -0.0777437321799210 Ag
    constrain_relaxation .true.
atom_frac 0.3124999895813591 -0.3125017190757532 -0.0777437321799210 Ag
    constrain_relaxation .true.
atom_frac 0.4374999895813591 -0.3125017190757532 -0.0777437321799210 Ag
    constrain_relaxation .true.
atom_frac 0.5624999895813592 -0.3125017190757532 -0.0777437321799210 Ag
    constrain_relaxation .true.
atom_frac -0.3125000104186409 -0.1875017190757532 -0.0777437321799210 Ag
    constrain_relaxation .true.
atom_frac -0.1875000104186409 -0.1875017190757532 -0.0777437321799210 Ag
    constrain_relaxation .true.
atom_frac -0.0625000104186409 -0.1875017190757532 -0.0777437321799210 Ag
    constrain_relaxation .true.
atom_frac 0.0624999895813591 -0.1875017190757532 -0.0777437321799210 Ag
    constrain_relaxation .true.
atom_frac 0.1874999895813591 -0.1875017190757532 -0.0777437321799210 Ag
    constrain_relaxation .true.
atom_frac 0.3124999895813591 -0.1875017190757532 -0.0777437321799210 Ag
    constrain_relaxation .true.
atom_frac 0.4374999895813591 -0.1875017190757532 -0.0777437321799210 Ag
    constrain_relaxation .true.
atom_frac 0.5624999895813592 -0.1875017190757532 -0.0777437321799210 Ag
    constrain_relaxation .true.
atom_frac -0.3125000104186409 -0.0625017190757532 -0.0777437321799210 Ag
    constrain_relaxation .true.
atom_frac -0.1875000104186409 -0.0625017190757532 -0.0777437321799210 Ag
    constrain_relaxation .true.
atom_frac -0.0625000104186409 -0.0625017190757532 -0.0777437321799210 Ag
    constrain_relaxation .true.
atom_frac 0.0624999895813591 -0.0625017190757532 -0.0777437321799210 Ag
    constrain_relaxation .true.
atom_frac 0.1874999895813591 -0.0625017190757532 -0.0777437321799210 Ag
    constrain_relaxation .true.
atom_frac 0.3124999895813591 -0.0625017190757532 -0.0777437321799210 Ag
    constrain_relaxation .true.
atom_frac 0.4374999895813591 -0.0625017190757532 -0.0777437321799210 Ag
    constrain_relaxation .true.
atom_frac 0.5624999895813592 -0.0625017190757532 -0.0777437321799210 Ag
    constrain_relaxation .true.
atom_frac -0.3125000104186409 0.0624982809242468 -0.0777437321799210 Ag
    constrain_relaxation .true.
atom_frac -0.1875000104186409 0.0624982809242468 -0.0777437321799210 Ag
    constrain_relaxation .true.
atom_frac -0.0625000104186409 0.0624982809242468 -0.0777437321799210 Ag
    constrain_relaxation .true.
atom_frac 0.0624999895813591 0.0624982809242468 -0.0777437321799210 Ag
    constrain_relaxation .true.
atom_frac 0.1874999895813591 0.0624982809242468 -0.0777437321799210 Ag
    constrain_relaxation .true.
atom_frac 0.3124999895813591 0.0624982809242468 -0.0777437321799210 Ag
    constrain_relaxation .true.
atom_frac 0.4374999895813591 0.0624982809242468 -0.0777437321799210 Ag
    constrain_relaxation .true.
atom_frac 0.5624999895813592 0.0624982809242468 -0.0777437321799210 Ag
    constrain_relaxation .true.
atom_frac -0.3125000104186409 0.1874982809242468 -0.0777437321799210 Ag
    constrain_relaxation .true.
atom_frac -0.1875000104186409 0.1874982809242468 -0.0777437321799210 Ag
    constrain_relaxation .true.
atom_frac -0.0625000104186409 0.1874982809242468 -0.0777437321799210 Ag
    constrain_relaxation .true.
atom_frac 0.0624999895813591 0.1874982809242468 -0.0777437321799210 Ag
    constrain_relaxation .true.
atom_frac 0.1874999895813591 0.1874982809242468 -0.0777437321799210 Ag
    constrain_relaxation .true.
atom_frac 0.3124999895813591 0.1874982809242468 -0.0777437321799210 Ag
    constrain_relaxation .true.
atom_frac 0.4374999895813591 0.1874982809242468 -0.0777437321799210 Ag
    constrain_relaxation .true.
atom_frac 0.5624999895813592 0.1874982809242468 -0.0777437321799210 Ag
    constrain_relaxation .true.
atom_frac -0.3125000104186409 0.3124982809242469 -0.0777437321799210 Ag
    constrain_relaxation .true.
atom_frac -0.1875000104186409 0.3124982809242469 -0.0777437321799210 Ag
    constrain_relaxation .true.
atom_frac -0.0625000104186409 0.3124982809242469 -0.0777437321799210 Ag
    constrain_relaxation .true.
atom_frac 0.0624999895813591 0.3124982809242469 -0.0777437321799210 Ag
    constrain_relaxation .true.
atom_frac 0.1874999895813591 0.3124982809242469 -0.0777437321799210 Ag
    constrain_relaxation .true.
atom_frac 0.3124999895813591 0.3124982809242469 -0.0777437321799210 Ag
    constrain_relaxation .true.
atom_frac 0.4374999895813591 0.3124982809242469 -0.0777437321799210 Ag
    constrain_relaxation .true.
atom_frac 0.5624999895813592 0.3124982809242469 -0.0777437321799210 Ag
    constrain_relaxation .true.
atom_frac -0.3125000104186409 0.4374982809242469 -0.0777437321799210 Ag
    constrain_relaxation .true.
atom_frac -0.1875000104186409 0.4374982809242469 -0.0777437321799210 Ag
    constrain_relaxation .true.
atom_frac -0.0625000104186409 0.4374982809242469 -0.0777437321799210 Ag
    constrain_relaxation .true.
atom_frac 0.0624999895813591 0.4374982809242469 -0.0777437321799210 Ag
    constrain_relaxation .true.
atom_frac 0.1874999895813591 0.4374982809242469 -0.0777437321799210 Ag
    constrain_relaxation .true.
atom_frac 0.3124999895813591 0.4374982809242469 -0.0777437321799210 Ag
    constrain_relaxation .true.
atom_frac 0.4374999895813591 0.4374982809242469 -0.0777437321799210 Ag
    constrain_relaxation .true.
atom_frac 0.5624999895813592 0.4374982809242469 -0.0777437321799210 Ag
    constrain_relaxation .true.
atom_frac -0.3750000102060156 -0.5000017188631278 -0.0581787122007239 Ag
    constrain_relaxation .true.
atom_frac -0.2500000102060156 -0.5000017188631278 -0.0581787122007239 Ag
    constrain_relaxation .true.
atom_frac -0.1250000102060156 -0.5000017188631278 -0.0581787122007239 Ag
    constrain_relaxation .true.
atom_frac -0.0000000102060156 -0.5000017188631278 -0.0581787122007239 Ag
    constrain_relaxation .true.
atom_frac 0.1249999897939844 -0.5000017188631278 -0.0581787122007239 Ag
    constrain_relaxation .true.
atom_frac 0.2499999897939844 -0.5000017188631278 -0.0581787122007239 Ag
    constrain_relaxation .true.
atom_frac 0.3749999897939844 -0.5000017188631278 -0.0581787122007239 Ag
    constrain_relaxation .true.
atom_frac 0.4999999897939844 -0.5000017188631278 -0.0581787122007239 Ag
    constrain_relaxation .true.
atom_frac -0.3750000102060156 -0.3750017188631278 -0.0581787122007239 Ag
    constrain_relaxation .true.
atom_frac -0.2500000102060156 -0.3750017188631278 -0.0581787122007239 Ag
    constrain_relaxation .true.
atom_frac -0.1250000102060156 -0.3750017188631278 -0.0581787122007239 Ag
    constrain_relaxation .true.
atom_frac -0.0000000102060156 -0.3750017188631278 -0.0581787122007239 Ag
    constrain_relaxation .true.
atom_frac 0.1249999897939844 -0.3750017188631278 -0.0581787122007239 Ag
    constrain_relaxation .true.
atom_frac 0.2499999897939844 -0.3750017188631278 -0.0581787122007239 Ag
    constrain_relaxation .true.
atom_frac 0.3749999897939844 -0.3750017188631278 -0.0581787122007239 Ag
    constrain_relaxation .true.
atom_frac 0.4999999897939844 -0.3750017188631278 -0.0581787122007239 Ag
    constrain_relaxation .true.
atom_frac -0.3750000102060156 -0.2500017188631279 -0.0581787122007239 Ag
    constrain_relaxation .true.
atom_frac -0.2500000102060156 -0.2500017188631279 -0.0581787122007239 Ag
    constrain_relaxation .true.
atom_frac -0.1250000102060156 -0.2500017188631279 -0.0581787122007239 Ag
    constrain_relaxation .true.
atom_frac -0.0000000102060156 -0.2500017188631279 -0.0581787122007239 Ag
    constrain_relaxation .true.
atom_frac 0.1249999897939844 -0.2500017188631279 -0.0581787122007239 Ag
    constrain_relaxation .true.
atom_frac 0.2499999897939844 -0.2500017188631279 -0.0581787122007239 Ag
    constrain_relaxation .true.
atom_frac 0.3749999897939844 -0.2500017188631279 -0.0581787122007239 Ag
    constrain_relaxation .true.
atom_frac 0.4999999897939844 -0.2500017188631279 -0.0581787122007239 Ag
    constrain_relaxation .true.
atom_frac -0.3750000102060156 -0.1250017188631278 -0.0581787122007239 Ag
    constrain_relaxation .true.
atom_frac -0.2500000102060156 -0.1250017188631278 -0.0581787122007239 Ag
    constrain_relaxation .true.
atom_frac -0.1250000102060156 -0.1250017188631278 -0.0581787122007239 Ag
    constrain_relaxation .true.
atom_frac -0.0000000102060156 -0.1250017188631278 -0.0581787122007239 Ag
    constrain_relaxation .true.
atom_frac 0.1249999897939844 -0.1250017188631278 -0.0581787122007239 Ag
    constrain_relaxation .true.
atom_frac 0.2499999897939844 -0.1250017188631278 -0.0581787122007239 Ag
    constrain_relaxation .true.
atom_frac 0.3749999897939844 -0.1250017188631278 -0.0581787122007239 Ag
    constrain_relaxation .true.
atom_frac 0.4999999897939844 -0.1250017188631278 -0.0581787122007239 Ag
    constrain_relaxation .true.
atom_frac -0.3750000102060156 -0.0000017188631278 -0.0581787122007239 Ag
    constrain_relaxation .true.
atom_frac -0.2500000102060156 -0.0000017188631278 -0.0581787122007239 Ag
    constrain_relaxation .true.
atom_frac -0.1250000102060156 -0.0000017188631278 -0.0581787122007239 Ag
    constrain_relaxation .true.
atom_frac -0.0000000102060156 -0.0000017188631278 -0.0581787122007239 Ag
    constrain_relaxation .true.
atom_frac 0.1249999897939844 -0.0000017188631278 -0.0581787122007239 Ag
    constrain_relaxation .true.
atom_frac 0.2499999897939844 -0.0000017188631278 -0.0581787122007239 Ag
    constrain_relaxation .true.
atom_frac 0.3749999897939844 -0.0000017188631278 -0.0581787122007239 Ag
    constrain_relaxation .true.
atom_frac 0.4999999897939844 -0.0000017188631278 -0.0581787122007239 Ag
    constrain_relaxation .true.
atom_frac -0.3750000102060156 0.1249982811368722 -0.0581787122007239 Ag
    constrain_relaxation .true.
atom_frac -0.2500000102060156 0.1249982811368722 -0.0581787122007239 Ag
    constrain_relaxation .true.
atom_frac -0.1250000102060156 0.1249982811368722 -0.0581787122007239 Ag
    constrain_relaxation .true.
atom_frac -0.0000000102060156 0.1249982811368722 -0.0581787122007239 Ag
    constrain_relaxation .true.
atom_frac 0.1249999897939844 0.1249982811368722 -0.0581787122007239 Ag
    constrain_relaxation .true.
atom_frac 0.2499999897939844 0.1249982811368722 -0.0581787122007239 Ag
    constrain_relaxation .true.
atom_frac 0.3749999897939844 0.1249982811368722 -0.0581787122007239 Ag
    constrain_relaxation .true.
atom_frac 0.4999999897939844 0.1249982811368722 -0.0581787122007239 Ag
    constrain_relaxation .true.
atom_frac -0.3750000102060156 0.2499982811368722 -0.0581787122007239 Ag
    constrain_relaxation .true.
atom_frac -0.2500000102060156 0.2499982811368722 -0.0581787122007239 Ag
    constrain_relaxation .true.
atom_frac -0.1250000102060156 0.2499982811368722 -0.0581787122007239 Ag
    constrain_relaxation .true.
atom_frac -0.0000000102060156 0.2499982811368722 -0.0581787122007239 Ag
    constrain_relaxation .true.
atom_frac 0.1249999897939844 0.2499982811368722 -0.0581787122007239 Ag
    constrain_relaxation .true.
atom_frac 0.2499999897939844 0.2499982811368722 -0.0581787122007239 Ag
    constrain_relaxation .true.
atom_frac 0.3749999897939844 0.2499982811368722 -0.0581787122007239 Ag
    constrain_relaxation .true.
atom_frac 0.4999999897939844 0.2499982811368722 -0.0581787122007239 Ag
    constrain_relaxation .true.
atom_frac -0.3750000102060156 0.3749982811368722 -0.0581787122007239 Ag
    constrain_relaxation .true.
atom_frac -0.2500000102060156 0.3749982811368722 -0.0581787122007239 Ag
    constrain_relaxation .true.
atom_frac -0.1250000102060156 0.3749982811368722 -0.0581787122007239 Ag
    constrain_relaxation .true.
atom_frac -0.0000000102060156 0.3749982811368722 -0.0581787122007239 Ag
    constrain_relaxation .true.
atom_frac 0.1249999897939844 0.3749982811368722 -0.0581787122007239 Ag
    constrain_relaxation .true.
atom_frac 0.2499999897939844 0.3749982811368722 -0.0581787122007239 Ag
    constrain_relaxation .true.
atom_frac 0.3749999897939844 0.3749982811368722 -0.0581787122007239 Ag
    constrain_relaxation .true.
atom_frac 0.4999999897939844 0.3749982811368722 -0.0581787122007239 Ag
    constrain_relaxation .true.
atom_frac -0.3124838436646749 -0.4374742695715378 -0.0401000285215394 Ag
atom_frac -0.1874442715401761 -0.4374704827144984 -0.0400986769017889 Ag
atom_frac -0.0624533761565954 -0.4374127813042831 -0.0400921681547129 Ag
atom_frac 0.0624533400102902 -0.4374127847062883 -0.0400921732377595 Ag
atom_frac 0.1874442281646098 -0.4374705354455790 -0.0400986840557064 Ag
atom_frac 0.3124837760498215 -0.4374742631927780 -0.0401000341693690 Ag
atom_frac 0.4374845661655295 -0.4374863870888133 -0.0400976202870039 Ag
atom_frac 0.5625153432560821 -0.4374863339324820 -0.0400976243346151 Ag
atom_frac -0.3124420321702525 -0.3124437629403986 -0.0400964093923406 Ag
atom_frac -0.1874545634564106 -0.3124332554220844 -0.0401130223889378 Ag
atom_frac -0.0623389501369084 -0.3121487678401536 -0.0400514535160092 Ag
atom_frac 0.0623389590671721 -0.3121487976076991 -0.0400514489977456 Ag
atom_frac 0.1874545307121105 -0.3124332673291026 -0.0401130232361122 Ag
atom_frac 0.3124420598115448 -0.3124437182890803 -0.0400964058153819 Ag
atom_frac 0.4374724375917370 -0.3124854426071194 -0.0401000128017471 Ag
atom_frac 0.5625275662355189 -0.3124854213445868 -0.0401000233443623 Ag
atom_frac -0.3124315050904085 -0.1874563197415957 -0.0401130434741682 Ag
atom_frac -0.1872204110929334 -0.1872220057828713 -0.0400633881329687 Ag
atom_frac -0.0625711812179484 -0.1874640167783631 -0.0400619943427574 Ag
atom_frac 0.0625711714371835 -0.1874640125258566 -0.0400619941544964 Ag
atom_frac 0.1872203957839099 -0.1872220210918948 -0.0400633878505773 Ag
atom_frac 0.3124314987116488 -0.1874563324991152 -0.0401130382969911 Ag
atom_frac 0.4374688437984928 -0.1874460609949118 -0.0400986685241751 Ag
atom_frac 0.5625310987926696 -0.1874460227223534 -0.0400986763370060 Ag
atom_frac -0.3121472815891314 -0.0623407234321195 -0.0400514639644940 Ag
atom_frac -0.1874624658892420 -0.0625727597483617 -0.0400619689275242 Ag
atom_frac -0.0633094950179488 -0.0633112338678572 -0.0403242441556730 Ag
atom_frac 0.0633094626988994 -0.0633112325921052 -0.0403242366252336 Ag
atom_frac 0.1874624242146783 -0.0625727537948526 -0.0400619671390449 Ag
atom_frac 0.3121472713831158 -0.0623406928140727 -0.0400514650940599 Ag
atom_frac 0.4374113703226261 -0.0624551864486131 -0.0400921650484066 Ag
atom_frac 0.5625885463282466 -0.0624551792193520 -0.0400921611890564 Ag
atom_frac -0.3121473423999743 0.0623372635928300 -0.0400514617994926 Ag
atom_frac -0.1874624407994537 0.0625693641219204 -0.0400619467127279 Ag
atom_frac -0.0633094006123045 0.0633075890445349 -0.0403241473895261 Ag
atom_frac 0.0633093576619888 0.0633075903202868 -0.0403241425888710 Ag
atom_frac 0.1874623778623574 0.0625693526401529 -0.0400619498190341 Ag
atom_frac 0.3121472382135650 0.0623372861311145 -0.0400514627407976 Ag
atom_frac 0.4374113750003832 0.0624517623303782 -0.0400921638247102 Ag
atom_frac 0.5625885561090116 0.0624517376658405 -0.0400921599653600 Ag
atom_frac -0.3124315246519384 0.1874528883940997 -0.0401130387676436 Ag
atom_frac -0.1872203945081580 0.1872185714586209 -0.0400633907686225 Ag
atom_frac -0.0625711420948886 0.1874604761414501 -0.0400619691157852 Ag
atom_frac 0.0625711225333587 0.1874604880484683 -0.0400619681744803 Ag
atom_frac 0.1872204008869177 0.1872185391395715 -0.0400633895449261 Ag
atom_frac 0.3124315174226774 0.1874529020021206 -0.0401130404619925 Ag
atom_frac 0.4374688850478058 0.1874425365175236 -0.0400986767135280 Ag
atom_frac 0.5625311311117190 0.1874426147636432 -0.0400986756780925 Ag
atom_frac -0.3124419934724433 0.3124402699315584 -0.0400964132516908 Ag
atom_frac -0.1874545319878625 0.3124298381078600 -0.0401130293545943 Ag
atom_frac -0.0623389195188616 0.3121452663263004 -0.0400514393023048 Ag
atom_frac 0.0623388995320811 0.3121452667515510 -0.0400514433499160 Ag
atom_frac 0.1874545128515832 0.3124297815495235 -0.0401130288839418 Ag
atom_frac 0.3124420138844746 0.3124402763103181 -0.0400964098629931 Ag
atom_frac 0.4374723997444292 0.3124819189802324 -0.0401000243797977 Ag
atom_frac 0.5625275683617722 0.3124819878708377 -0.0401000154374009 Ag
atom_frac -0.3124837756245709 0.4374707799647028 -0.0401000402878511 Ag
atom_frac -0.1874442455998865 0.4374670734800363 -0.0400986833967930 Ag
atom_frac -0.0624533906151176 0.4374092738369209 -0.0400921778501537 Ag
atom_frac 0.0624533570203162 0.4374092861691898 -0.0400921743673254 Ag
atom_frac 0.1874442111545838 0.4374670386094829 -0.0400986783137463 Ag
atom_frac 0.3124837917840955 0.4374707905959691 -0.0401000336987165 Ag
atom_frac 0.4374846035875867 0.4374828409236418 -0.0400976187809160 Ag
atom_frac 0.5625153811033901 0.4374828796214510 -0.0400976202870039 Ag
atom_frac -0.3749420753331935 -0.5000017435276656 -0.0222863995557041 Ag
atom_frac -0.2499483707438181 -0.5000017635144461 -0.0222906342041973 Ag
atom_frac -0.1249649670009408 -0.5000017771224670 -0.0222915890639193 Ag
atom_frac -0.0000000114817676 -0.5000017732952111 -0.0222906060591798 Ag
atom_frac 0.1249649368081446 -0.5000017146106214 -0.0222915906641377 Ag
atom_frac 0.2499483371490167 -0.5000018472888242 -0.0222906331687619 Ag
atom_frac 0.3749420536454103 -0.5000017282186422 -0.0222864069920130 Ag
atom_frac 0.4999999140993687 -0.5000017622386942 -0.0222980044335462 Ag
atom_frac -0.3749371594356780 -0.3749387460458536 -0.0222835433541519 Ag
atom_frac -0.2499285906350778 -0.3749346997859176 -0.0222946420923326 Ag
atom_frac -0.1249482754876724 -0.3748208708181434 -0.0222905376263114 Ag
atom_frac -0.0000000068040104 -0.3747347830765305 -0.0222541866890070 Ag
atom_frac 0.1249482027698113 -0.3748208844261642 -0.0222905347082661 Ag
atom_frac 0.2499285804290622 -0.3749347142444397 -0.0222946441632034 Ag
atom_frac 0.3749371194621169 -0.3749387639063810 -0.0222835478724155 Ag
atom_frac 0.4999998907105830 -0.3749438384223889 -0.0222864130163646 Ag
atom_frac -0.3749326436990242 -0.2499299994904817 -0.0222946197834057 Ag
atom_frac -0.2498380607251737 -0.2498399441603031 -0.0222817749245779 Ag
atom_frac -0.1250643723171638 -0.2499170965352554 -0.0222617869732811 Ag
atom_frac -0.0000000042525065 -0.2493150309173042 -0.0221293443340503 Ag
atom_frac 0.1250643506293807 -0.2499170799504800 -0.0222617836787138 Ag
atom_frac 0.2498380526454113 -0.2498399356552901 -0.0222817811371905 Ag
atom_frac 0.3749326845230866 -0.2499300011914843 -0.0222946094290515 Ag
atom_frac 0.5000000140332715 -0.2499503001060177 -0.0222906063415713 Ag
atom_frac -0.3748193658560926 -0.1249499573539937 -0.0222905391323992 Ag
atom_frac -0.2499156570618047 -0.1250660614127461 -0.0222617803841465 Ag
atom_frac -0.1250573327179015 -0.1250589095473122 -0.0220631130836679 Ag
atom_frac 0.0000000000000000 -0.1237393457234340 -0.0226232714111573 Ag
atom_frac 0.1250572893423352 -0.1250589031685525 -0.0220631127071459 Ag
atom_frac 0.2499156315467657 -0.1250660597117436 -0.0222617816078430 Ag
atom_frac 0.3748193216300249 -0.1249499883972912 -0.0222905454391423 Ag
atom_frac 0.4999999379134051 -0.1249667700636973 -0.0222915486819378 Ag
atom_frac -0.3747335281618620 -0.0000017090823629 -0.0222542144575024 Ag
atom_frac -0.2493143160709614 -0.0000016958995927 -0.0221293304968678 Ag
atom_frac -0.1237377535849999 -0.0000017771224669 -0.0226233171585769 Ag
atom_frac -0.0000000029767546 -0.0000017588366889 -0.0233343367330130 Ag
atom_frac 0.1237377340234700 -0.0000017626639448 -0.0226233176292294 Ag
atom_frac 0.2493143045891938 -0.0000017018531018 -0.0221293242842553 Ag
atom_frac 0.3747334741550294 -0.0000017175873759 -0.0222542153988074 Ag
atom_frac 0.4999999264316376 -0.0000017367236551 -0.0222905346141356 Ag
atom_frac -0.3748193607530848 0.1249465400397693 -0.0222905423328360 Ag
atom_frac -0.2499156778990865 0.1250626517530334 -0.0222617853730627 Ag
atom_frac -0.1250572948705937 0.1250554165384720 -0.0220630987758329 Ag
atom_frac -0.0000000097807650 0.1237352025063498 -0.0226232961674770 Ag
atom_frac 0.1250572765848157 0.1250554156879707 -0.0220630964225706 Ag
atom_frac 0.2499156277195098 0.1250626181582320 -0.0222617838669748 Ag
atom_frac 0.3748193114240094 0.1249465187772367 -0.0222905461921862 Ag
atom_frac 0.5000000051030078 0.1249633331879430 -0.0222915498115037 Ag
atom_frac -0.3749326747423217 0.2499265319966805 -0.0222946183714483 Ag
atom_frac -0.2498380415888944 0.2498364838957630 -0.0222817761482744 Ag
atom_frac -0.1250643744434171 0.2499136277657023 -0.0222617805724075 Ag
atom_frac -0.0000000131827702 0.2493114184130313 -0.0221292898324948 Ag
atom_frac 0.1250643472273755 0.2499136188354386 -0.0222617825491479 Ag
atom_frac 0.2498380113960983 0.2498364741149980 -0.0222817805724075 Ag
atom_frac 0.3749326254132463 0.2499265366744377 -0.0222946070757892 Ag
atom_frac 0.4999999179266246 0.2499468423929815 -0.0222906039883090 Ag
atom_frac -0.3749371279671299 0.3749352696217888 -0.0222835480606765 Ag
atom_frac -0.2499286012663441 0.3749312297406125 -0.0222946410568972 Ag
atom_frac -0.1249482172283334 0.3748173625002797 -0.0222905349906575 Ag
atom_frac -0.0000000191362793 0.3747312836889306 -0.0222541706868231 Ag
atom_frac 0.1249482125505762 0.3748173412377473 -0.0222905343317441 Ag
atom_frac 0.2499285689472946 0.3749312305911138 -0.0222946391742873 Ag
atom_frac 0.3749371772962053 0.3749352147644550 -0.0222835487195900 Ag
atom_frac 0.4999999651294467 0.3749403781578488 -0.0222864117926682 Ag
atom_frac 0.0000000127575195 0.0000016104242121 0.0038146875573608 Mg
atom_frac 0.0000000114817676 -0.0884338656091393 0.0046871078876647 N
atom_frac 0.0884354917676254 0.0000015525901236 0.0046868584418579 N
atom_frac 0.0000000123322689 0.0884370719990413 0.0046870031204258 N
atom_frac -0.0884354662525864 0.0000015542911262 0.0046868599479458 N
atom_frac 0.0472956258898434 -0.1233548043180387 0.0048163023659699 C
atom_frac -0.0472956042020602 -0.1233548030422867 0.0048163026483614 C
atom_frac 0.0472956488533785 0.1233580060301835 0.0048162210372239 C
atom_frac -0.0472956237635901 0.1233580064554342 0.0048162215078764 C
atom_frac 0.1233564755530937 -0.0472940635189548 0.0048160411538516 C
atom_frac 0.1233564895863651 0.0472971363801526 0.0048159868405571 C
atom_frac -0.1233564513138066 -0.0472940613927015 0.0048160423775480 C
atom_frac -0.1233564640713261 0.0472971380811552 0.0048159874994705 C
atom_frac 0.0292719953984206 -0.1821617964824620 0.0049907169449007 C
atom_frac -0.0292719754116400 -0.1821617956319607 0.0049907171331617 C
atom_frac 0.0292720136841985 0.1821649603472990 0.0049907033901097 C
atom_frac -0.0292719881691595 0.1821649607725497 0.0049907035783707 C
atom_frac 0.1821631530320360 -0.0292706362973427 0.0049903342103158 C
atom_frac 0.1821631551582892 0.0292736998030263 0.0049903041826885 C
atom_frac -0.1821631287927489 -0.0292706328953375 0.0049903343044463 C
atom_frac -0.1821631300685009 0.0292737023545302 0.0049903040885580 C
atom_frac 0.1041419187089564 -0.1041406671962931 0.0047616563201566 C
atom_frac -0.1041418961706720 -0.1041406642195386 0.0047616579203750 C
atom_frac -0.1041419314664760 0.1041437740775430 0.0047615391276927 C
atom_frac 0.1041419569815150 0.1041437732270417 0.0047615379981268 C
atom_frac 0.0575483280609000 -0.2187482536018926 0.0051188970730123 H
atom_frac -0.0575483093498714 -0.2187482514756393 0.0051188978260563 H
atom_frac 0.0575483361406624 0.2187514187424815 0.0051189659765333 H
atom_frac -0.0575483106256234 0.2187514191677322 0.0051189665413162 H
atom_frac 0.2187496947763459 -0.0575468282018570 0.0051186115752267 H
atom_frac 0.2187497215671368 0.0575498598137418 0.0051185345764834 H
atom_frac -0.2187496713875601 -0.0575468243746011 0.0051186109163133 H
atom_frac -0.2187496960520978 0.0575498632157470 0.0051185338234394 H
atom_frac 0.1369257088202860 0.1369274519227009 0.0052510276696584 H
atom_frac 0.1369256450326885 -0.1369243837392602 0.0052511323427668 H
atom_frac -0.1369256237701560 -0.1369243803372550 0.0052511333782022 H
atom_frac -0.1369256837304977 0.1369274531984529 0.0052698545213229 H
