lattice_vector 100.0000000000000000 0.0000000000000000 0.0000000000000000
lattice_vector 0.0000000000000000 100.0000000000000000 0.0000000000000000
lattice_vector 0.0000000000000000 0.0000000000000000 100.0000000000000000
atom -0.0000000112769090 0.7535483916951038 0.1617104364814726 C
atom -0.0000002470436865 -0.7535735955541771 0.1617093222034074 C
atom 1.1882103512071840 1.4768248123185204 0.0566053172485240 C
atom -1.1882101328895691 1.4768250471407844 0.0566042101849835 C
atom 1.1882101970329060 -1.4768505778027674 0.0566077578149635 C
atom -1.1882106863351782 -1.4768503509393049 0.0566077587288476 C
atom 2.1893834780188186 2.0919557699152547 -0.1157043793859936 N
atom -2.1893830210178229 2.0919564742251100 -0.1157055155945016 N
atom 2.1894159712451384 -2.0919232305721311 -0.1157217717479257 N
atom -2.1894159812659595 -2.0919239572353732 -0.1137217784282546 N
homogeneous_field 0.0 0.0 0.0
set_vacuum_level 49.0000000000000000