lattice_vector 100.0000000000000000 0.0000000000000000 0.0000000000000000
lattice_vector 0.0000000000000000 100.0000000000000000 0.0000000000000000
lattice_vector 0.0000000000000000 0.0000000000000000 100.0000000000000000
atom 0.0000182462170669 0.7535450148926278 0.1624369371482710 C
atom -0.0000188204652014 -0.7535708480617427 0.1624359212302483 C
atom 1.1881705687680737 1.4769028131970889 0.0570578001340811 C
atom -1.1879638346751940 1.4765584412148778 0.0544984345341219 C
atom 1.1879639407631368 -1.4765838714052133 0.0545012951575042 C
atom -1.1881711860625737 -1.4769290194472566 0.0570603448109515 C
atom 2.1890770737113829 2.0922539864376488 -0.1158699213599542 N
atom -2.1889343340670382 2.0914276294066609 -0.1200637503004977 N
atom 2.1889681476526555 -2.0913926898534210 -0.1200813691929651 N
atom -2.1891101137229172 -2.0922224311195481 -0.1138872623737210 N
homogeneous_field 0.0 0.0 0.0
set_vacuum_level 49.0000000000000000