lattice_vector 100.0000000000000000 0.0000000000000000 0.0000000000000000
lattice_vector 0.0000000000000000 100.0000000000000000 0.0000000000000000
lattice_vector 0.0000000000000000 0.0000000000000000 100.0000000000000000
atom -0.0005678295377059 0.7535449961965484 0.1624370182516661 C
atom 0.0005675715295429 -0.7535708657656875 0.1624359731350467 C
atom 1.1869763498891266 1.4775620093693460 0.0556850566498344 C
atom -1.1891580531699275 1.4758992039456686 0.0558712929881610 C
atom 1.1891582720303548 -1.4759250641162172 0.0558745244717092 C
atom -1.1869768383647454 -1.4775878794578337 0.0556871555310367 C
atom 2.1875398737767160 2.0932589695214889 -0.1181580798419939 N
atom -2.1904715334165603 2.0904225975451753 -0.1177755093149422 N
atom 2.1905051270556455 -2.0903886863841792 -0.1177924471553752 N
atom -2.1875730780564382 -2.0932265383388762 -0.1161761932089766 N
homogeneous_field 0.0 0.0 0.0
set_vacuum_level 49.0000000000000000