lattice_vector 23.5155431200000002 0.0000000000000000 0.0000000000000000
lattice_vector 0.0000000000000000 23.5155431200000002 0.0000000000000000
lattice_vector 0.0000000000000000 0.0000000000000000 106.2355000000000018
atom -7.3486081900000002 -10.2881751200000000 -9.5825768599999996 Ag
atom -4.4091652999999997 -10.2881751200000000 -9.5825768599999996 Ag
atom -1.4697224100000001 -10.2881751200000000 -9.5825768599999996 Ag
atom 1.4697204799999999 -10.2881751200000000 -9.5825768599999996 Ag
atom 4.4091633699999999 -10.2881751200000000 -9.5825768599999996 Ag
atom 7.3486062599999995 -10.2881751200000000 -9.5825768599999996 Ag
atom 10.2880491500000009 -10.2881751200000000 -9.5825768599999996 Ag
atom 13.2274920400000013 -10.2881751200000000 -9.5825768599999996 Ag
atom -7.3486081900000002 -7.3487322300000004 -9.5825768599999996 Ag
atom -4.4091652999999997 -7.3487322300000004 -9.5825768599999996 Ag
atom -1.4697224100000001 -7.3487322300000004 -9.5825768599999996 Ag
atom 1.4697204799999999 -7.3487322300000004 -9.5825768599999996 Ag
atom 4.4091633699999999 -7.3487322300000004 -9.5825768599999996 Ag
atom 7.3486062599999995 -7.3487322300000004 -9.5825768599999996 Ag
atom 10.2880491500000009 -7.3487322300000004 -9.5825768599999996 Ag
atom 13.2274920400000013 -7.3487322300000004 -9.5825768599999996 Ag
atom -7.3486081900000002 -4.4092893399999999 -9.5825768599999996 Ag
atom -4.4091652999999997 -4.4092893399999999 -9.5825768599999996 Ag
atom -1.4697224100000001 -4.4092893399999999 -9.5825768599999996 Ag
atom 1.4697204799999999 -4.4092893399999999 -9.5825768599999996 Ag
atom 4.4091633699999999 -4.4092893399999999 -9.5825768599999996 Ag
atom 7.3486062599999995 -4.4092893399999999 -9.5825768599999996 Ag
atom 10.2880491500000009 -4.4092893399999999 -9.5825768599999996 Ag
atom 13.2274920400000013 -4.4092893399999999 -9.5825768599999996 Ag
atom -7.3486081900000002 -1.4698464499999999 -9.5825768599999996 Ag
atom -4.4091652999999997 -1.4698464499999999 -9.5825768599999996 Ag
atom -1.4697224100000001 -1.4698464499999999 -9.5825768599999996 Ag
atom 1.4697204799999999 -1.4698464499999999 -9.5825768599999996 Ag
atom 4.4091633699999999 -1.4698464499999999 -9.5825768599999996 Ag
atom 7.3486062599999995 -1.4698464499999999 -9.5825768599999996 Ag
atom 10.2880491500000009 -1.4698464499999999 -9.5825768599999996 Ag
atom 13.2274920400000013 -1.4698464499999999 -9.5825768599999996 Ag
atom -7.3486081900000002 1.4695964399999999 -9.5825768599999996 Ag
atom -4.4091652999999997 1.4695964399999999 -9.5825768599999996 Ag
atom -1.4697224100000001 1.4695964399999999 -9.5825768599999996 Ag
atom 1.4697204799999999 1.4695964399999999 -9.5825768599999996 Ag
atom 4.4091633699999999 1.4695964399999999 -9.5825768599999996 Ag
atom 7.3486062599999995 1.4695964399999999 -9.5825768599999996 Ag
atom 10.2880491500000009 1.4695964399999999 -9.5825768599999996 Ag
atom 13.2274920400000013 1.4695964399999999 -9.5825768599999996 Ag
atom -7.3486081900000002 4.4090393299999997 -9.5825768599999996 Ag
atom -4.4091652999999997 4.4090393299999997 -9.5825768599999996 Ag
atom -1.4697224100000001 4.4090393299999997 -9.5825768599999996 Ag
atom 1.4697204799999999 4.4090393299999997 -9.5825768599999996 Ag
atom 4.4091633699999999 4.4090393299999997 -9.5825768599999996 Ag
atom 7.3486062599999995 4.4090393299999997 -9.5825768599999996 Ag
atom 10.2880491500000009 4.4090393299999997 -9.5825768599999996 Ag
atom 13.2274920400000013 4.4090393299999997 -9.5825768599999996 Ag
atom -7.3486081900000002 7.3484822200000002 -9.5825768599999996 Ag
atom -4.4091652999999997 7.3484822200000002 -9.5825768599999996 Ag
atom -1.4697224100000001 7.3484822200000002 -9.5825768599999996 Ag
atom 1.4697204799999999 7.3484822200000002 -9.5825768599999996 Ag
atom 4.4091633699999999 7.3484822200000002 -9.5825768599999996 Ag
atom 7.3486062599999995 7.3484822200000002 -9.5825768599999996 Ag
atom 10.2880491500000009 7.3484822200000002 -9.5825768599999996 Ag
atom 13.2274920400000013 7.3484822200000002 -9.5825768599999996 Ag
atom -7.3486081900000002 10.2879251100000015 -9.5825768599999996 Ag
atom -4.4091652999999997 10.2879251100000015 -9.5825768599999996 Ag
atom -1.4697224100000001 10.2879251100000015 -9.5825768599999996 Ag
atom 1.4697204799999999 10.2879251100000015 -9.5825768599999996 Ag
atom 4.4091633699999999 10.2879251100000015 -9.5825768599999996 Ag
atom 7.3486062599999995 10.2879251100000015 -9.5825768599999996 Ag
atom 10.2880491500000009 10.2879251100000015 -9.5825768599999996 Ag
atom 13.2274920400000013 10.2879251100000015 -9.5825768599999996 Ag
atom -8.8183296299999991 -11.7578965599999989 -7.5040771800000003 Ag
atom -5.8788867400000004 -11.7578965599999989 -7.5040771800000003 Ag
atom -2.9394438500000000 -11.7578965599999989 -7.5040771800000003 Ag
atom -0.0000009600000000 -11.7578965599999989 -7.5040771800000003 Ag
atom 2.9394419300000001 -11.7578965599999989 -7.5040771800000003 Ag
atom 5.8788848199999997 -11.7578965599999989 -7.5040771800000003 Ag
atom 8.8183277100000002 -11.7578965599999989 -7.5040771800000003 Ag
atom 11.7577706000000006 -11.7578965599999989 -7.5040771800000003 Ag
atom -8.8183296299999991 -8.8184536699999985 -7.5040771800000003 Ag
atom -5.8788867400000004 -8.8184536699999985 -7.5040771800000003 Ag
atom -2.9394438500000000 -8.8184536699999985 -7.5040771800000003 Ag
atom -0.0000009600000000 -8.8184536699999985 -7.5040771800000003 Ag
atom 2.9394419300000001 -8.8184536699999985 -7.5040771800000003 Ag
atom 5.8788848199999997 -8.8184536699999985 -7.5040771800000003 Ag
atom 8.8183277100000002 -8.8184536699999985 -7.5040771800000003 Ag
atom 11.7577706000000006 -8.8184536699999985 -7.5040771800000003 Ag
atom -8.8183296299999991 -5.8790107800000007 -7.5040771800000003 Ag
atom -5.8788867400000004 -5.8790107800000007 -7.5040771800000003 Ag
atom -2.9394438500000000 -5.8790107800000007 -7.5040771800000003 Ag
atom -0.0000009600000000 -5.8790107800000007 -7.5040771800000003 Ag
atom 2.9394419300000001 -5.8790107800000007 -7.5040771800000003 Ag
atom 5.8788848199999997 -5.8790107800000007 -7.5040771800000003 Ag
atom 8.8183277100000002 -5.8790107800000007 -7.5040771800000003 Ag
atom 11.7577706000000006 -5.8790107800000007 -7.5040771800000003 Ag
atom -8.8183296299999991 -2.9395678899999997 -7.5040771800000003 Ag
atom -5.8788867400000004 -2.9395678899999997 -7.5040771800000003 Ag
atom -2.9394438500000000 -2.9395678899999997 -7.5040771800000003 Ag
atom -0.0000009600000000 -2.9395678899999997 -7.5040771800000003 Ag
atom 2.9394419300000001 -2.9395678899999997 -7.5040771800000003 Ag
atom 5.8788848199999997 -2.9395678899999997 -7.5040771800000003 Ag
atom 8.8183277100000002 -2.9395678899999997 -7.5040771800000003 Ag
atom 11.7577706000000006 -2.9395678899999997 -7.5040771800000003 Ag
atom -8.8183296299999991 -0.0001250000000000 -7.5040771800000003 Ag
atom -5.8788867400000004 -0.0001250000000000 -7.5040771800000003 Ag
atom -2.9394438500000000 -0.0001250000000000 -7.5040771800000003 Ag
atom -0.0000009600000000 -0.0001250000000000 -7.5040771800000003 Ag
atom 2.9394419300000001 -0.0001250000000000 -7.5040771800000003 Ag
atom 5.8788848199999997 -0.0001250000000000 -7.5040771800000003 Ag
atom 8.8183277100000002 -0.0001250000000000 -7.5040771800000003 Ag
atom 11.7577706000000006 -0.0001250000000000 -7.5040771800000003 Ag
atom -8.8183296299999991 2.9393178900000003 -7.5040771800000003 Ag
atom -5.8788867400000004 2.9393178900000003 -7.5040771800000003 Ag
atom -2.9394438500000000 2.9393178900000003 -7.5040771800000003 Ag
atom -0.0000009600000000 2.9393178900000003 -7.5040771800000003 Ag
atom 2.9394419300000001 2.9393178900000003 -7.5040771800000003 Ag
atom 5.8788848199999997 2.9393178900000003 -7.5040771800000003 Ag
atom 8.8183277100000002 2.9393178900000003 -7.5040771800000003 Ag
atom 11.7577706000000006 2.9393178900000003 -7.5040771800000003 Ag
atom -8.8183296299999991 5.8787607799999995 -7.5040771800000003 Ag
atom -5.8788867400000004 5.8787607799999995 -7.5040771800000003 Ag
atom -2.9394438500000000 5.8787607799999995 -7.5040771800000003 Ag
atom -0.0000009600000000 5.8787607799999995 -7.5040771800000003 Ag
atom 2.9394419300000001 5.8787607799999995 -7.5040771800000003 Ag
atom 5.8788848199999997 5.8787607799999995 -7.5040771800000003 Ag
atom 8.8183277100000002 5.8787607799999995 -7.5040771800000003 Ag
atom 11.7577706000000006 5.8787607799999995 -7.5040771800000003 Ag
atom -8.8183296299999991 8.8182036700000008 -7.5040771800000003 Ag
atom -5.8788867400000004 8.8182036700000008 -7.5040771800000003 Ag
atom -2.9394438500000000 8.8182036700000008 -7.5040771800000003 Ag
atom -0.0000009600000000 8.8182036700000008 -7.5040771800000003 Ag
atom 2.9394419300000001 8.8182036700000008 -7.5040771800000003 Ag
atom 5.8788848199999997 8.8182036700000008 -7.5040771800000003 Ag
atom 8.8183277100000002 8.8182036700000008 -7.5040771800000003 Ag
atom 11.7577706000000006 8.8182036700000008 -7.5040771800000003 Ag
atom -7.3493445600000005 -10.2871973199999989 -5.4839157700000003 Ag
atom -4.4084866800000002 -10.2877827300000000 -5.4838330900000001 Ag
atom -1.4685287200000001 -10.2866789999999995 -5.4831253200000001 Ag
atom 1.4685262699999999 -10.2866787500000001 -5.4831257600000001 Ag
atom 4.4084839100000002 -10.2877824300000000 -5.4838333600000002 Ag
atom 7.3493419600000003 -10.2871977000000001 -5.4839158800000005 Ag
atom 10.2881786300000009 -10.2883053399999991 -5.4836249200000005 Ag
atom 13.2273611500000001 -10.2883049799999995 -5.4836248000000003 Ag
atom -7.3484252300000001 -7.3485484599999999 -5.4836600400000002 Ag
atom -4.4102176699999998 -7.3489058200000006 -5.4863403600000007 Ag
atom -1.4675659500000000 -7.3450809900000005 -5.4814144900000006 Ag
atom 1.4675637799999999 -7.3450811700000003 -5.4814144499999999 Ag
atom 4.4102145400000001 -7.3489049000000000 -5.4863402600000004 Ag
atom 7.3484208500000001 -7.3485488600000002 -5.4836604600000003 Ag
atom 10.2870671000000016 -7.3494639700000004 -5.4839129000000000 Ag
atom 13.2284717400000016 -7.3494625800000000 -5.4839123200000000 Ag
atom -7.3487762500000002 -4.4103426400000005 -5.4863370300000005 Ag
atom -4.4043294900000003 -4.4044514299999999 -5.4800926500000005 Ag
atom -1.4715433800000000 -4.4106735700000002 -5.4802305499999999 Ag
atom 1.4715406499999999 -4.4106733900000004 -5.4802305700000007 Ag
atom 4.4043267500000001 -4.4044509200000004 -5.4800926100000007 Ag
atom 7.3487746999999999 -4.4103426600000004 -5.4863366800000000 Ag
atom 10.2876561500000001 -4.4086120700000002 -5.4838338700000007 Ag
atom 13.2278826300000016 -4.4086118399999998 -5.4838323300000003 Ag
atom -7.3449615100000001 -1.4676901700000000 -5.4814146099999999 Ag
atom -4.4105523199999999 -1.4716641100000001 -5.4802270399999999 Ag
atom -1.4862345600000000 -1.4863605000000000 -5.5082105700000001 Ag
atom 1.4862323199999998 -1.4863608800000001 -5.5082107000000002 Ag
atom 4.4105499999999997 -1.4716641100000001 -5.4802273600000007 Ag
atom 7.3449591199999995 -1.4676899999999999 -5.4814145999999999 Ag
atom 10.2865580600000008 -1.4686538899999999 -5.4831285800000007 Ag
atom 13.2289819200000007 -1.4686539400000000 -5.4831281500000006 Ag
atom -7.3449618299999999 1.4674397900000000 -5.4814147700000007 Ag
atom -4.4105501199999999 1.4714139799999999 -5.4802253700000003 Ag
atom -1.4862361700000000 1.4861043100000000 -5.5082087200000007 Ag
atom 1.4862340599999999 1.4861043199999999 -5.5082086000000006 Ag
atom 4.4105480200000002 1.4714143900000001 -5.4802250600000004 Ag
atom 7.3449587300000001 1.4674396700000001 -5.4814150000000001 Ag
atom 10.2865578400000004 1.4684037000000001 -5.4831291000000002 Ag
atom 13.2289822500000014 1.4684038500000001 -5.4831285100000002 Ag
atom -7.3487768899999999 4.4100921299999998 -5.4863374900000004 Ag
atom -4.4043268800000002 4.4041986099999999 -5.4800921499999999 Ag
atom -1.4715403000000000 4.4104168599999998 -5.4802255799999999 Ag
atom 1.4715383700000000 4.4104172600000000 -5.4802253500000004 Ag
atom 4.4043243900000002 4.4041991800000000 -5.4800916700000002 Ag
atom 7.3487730700000000 4.4100922200000001 -5.4863380500000005 Ag
atom 10.2876564800000008 4.4083611299999994 -5.4838340600000004 Ag
atom 13.2278833000000002 4.4083615199999997 -5.4838334800000004 Ag
atom -7.3484233300000001 7.3482975399999999 -5.4836603000000004 Ag
atom -4.4102169900000003 7.3486530999999999 -5.4863406800000005 Ag
atom -1.4675640600000002 7.3448252499999995 -5.4814120700000002 Ag
atom 1.4675620000000000 7.3448260300000001 -5.4814118199999999 Ag
atom 4.4102145200000002 7.3486542899999998 -5.4863408700000003 Ag
atom 7.3484222700000004 7.3482973399999993 -5.4836607200000005 Ag
atom 10.2870675700000014 7.3492122499999999 -5.4839129800000004 Ag
atom 13.2284717900000004 7.3492137299999998 -5.4839121799999999 Ag
atom -7.3493437300000002 10.2869458400000013 -5.4839162300000002 Ag
atom -4.4084858599999999 10.2875302400000006 -5.4838334200000007 Ag
atom -1.4685284000000001 10.2864245400000005 -5.4831253700000007 Ag
atom 1.4685259300000000 10.2864247600000009 -5.4831257000000004 Ag
atom 4.4084832699999996 10.2875305800000003 -5.4838337300000006 Ag
atom 7.3493421999999997 10.2869457100000012 -5.4839164199999999 Ag
atom 10.2881780600000017 10.2880534099999998 -5.4836260399999999 Ag
atom 13.2273615900000010 10.2880537300000015 -5.4836251700000007 Ag
atom -8.8184711099999991 -11.7578992099999997 -3.4999998600000000 Ag
atom -5.8801765200000000 -11.7578983899999994 -3.5028981099999998 Ag
atom -2.9386281500000000 -11.7578981899999988 -3.5016912699999998 Ag
atom -0.0000014400000000 -11.7579009899999996 -3.4992056099999997 Ag
atom 2.9386246300000001 -11.7578981200000001 -3.5016914699999999 Ag
atom 5.8801720499999997 -11.7579000399999991 -3.5028984899999998 Ag
atom 8.8184666400000005 -11.7578998899999991 -3.4999993699999998 Ag
atom 11.7577682400000008 -11.7578989699999994 -3.4973204000000000 Ag
atom -8.8183402599999994 -8.8184608499999992 -3.4982012399999998 Ag
atom -5.8779940200000000 -8.8153719499999994 -3.4995285899999997 Ag
atom -2.9374680400000002 -8.8151722499999998 -3.5002996600000000 Ag
atom -0.0000011800000000 -8.8119834299999997 -3.4974594399999996 Ag
atom 2.9374652599999997 -8.8151715699999986 -3.5002995299999999 Ag
atom 5.8779902000000002 -8.8153721599999990 -3.4995282899999998 Ag
atom 8.8183363200000002 -8.8184612699999985 -3.4982011300000000 Ag
atom 11.7577692000000003 -8.8185959299999990 -3.4999995799999999 Ag
atom -8.8152426699999999 -5.8781111300000006 -3.4995244699999999 Ag
atom -5.8759585799999998 -5.8760896699999998 -3.4987430300000000 Ag
atom -2.9419044900000002 -5.8809750300000001 -3.5000100299999999 Ag
atom -0.0000012100000000 -5.8687628300000005 -3.4908087100000000 Ag
atom 2.9419013800000000 -5.8809736800000003 -3.5000097699999997 Ag
atom 5.8759552399999997 -5.8760891000000006 -3.4987422900000000 Ag
atom 8.8152378500000008 -5.8781113000000005 -3.4995249099999999 Ag
atom 11.7577678400000014 -5.8803028099999999 -3.5028940899999998 Ag
atom -8.8150569899999986 -2.9375920199999999 -3.5003005899999997 Ag
atom -5.8808594300000001 -2.9420299399999998 -3.5000087799999999 Ag
atom -2.9427953700000002 -2.9429150699999997 -3.4742892899999998 Ag
atom -0.0000014000000000 -2.9124305699999997 -3.5372072200000000 Ag
atom 2.9427926799999997 -2.9429139199999996 -3.4742893099999996 Ag
atom 5.8808560099999996 -2.9420288499999998 -3.5000085999999997 Ag
atom 8.8150524400000005 -2.9375923399999997 -3.5003001700000000 Ag
atom 11.7577681400000014 -2.9387530699999997 -3.5016841400000001 Ag
atom -8.8118706099999997 -0.0001243700000000 -3.4974638099999997 Ag
atom -5.8686475400000004 -0.0001254900000000 -3.4908028000000000 Ag
atom -2.9123003900000000 -0.0001300500000000 -3.5372048999999999 Ag
atom -0.0000010600000000 -0.0001360600000000 -3.5960677899999998 Ag
atom 2.9122977199999998 -0.0001301200000000 -3.5372051199999999 Ag
atom 5.8686449999999999 -0.0001251600000000 -3.4908026899999998 Ag
atom 8.8118676600000008 -0.0001242200000000 -3.4974632899999998 Ag
atom 11.7577681200000015 -0.0001248500000000 -3.4992005799999997 Ag
atom -8.8150562999999984 2.9373421200000003 -3.5003005699999998 Ag
atom -5.8808605199999997 2.9417790800000003 -3.5000104699999999 Ag
atom -2.9427950599999999 2.9426623400000000 -3.4742810199999998 Ag
atom -0.0000009100000000 2.9121515500000004 -3.5372047799999997 Ag
atom 2.9427935700000001 2.9426623200000002 -3.4742807899999999 Ag
atom 5.8808587299999999 2.9417792600000001 -3.5000100900000000 Ag
atom 8.8150529400000011 2.9373423400000003 -3.5003008699999998 Ag
atom 11.7577675600000013 2.9385021400000002 -3.5016843600000001 Ag
atom -8.8152416999999996 5.8778601799999999 -3.4995248999999999 Ag
atom -5.8759574399999996 5.8758380599999995 -3.4987428399999998 Ag
atom -2.9419051800000000 5.8807213500000000 -3.5000088599999999 Ag
atom -0.0000009600000000 5.8684984899999995 -3.4907988500000000 Ag
atom 2.9419030199999998 5.8807228299999998 -3.5000090500000001 Ag
atom 5.8759547999999997 5.8758384999999995 -3.4987425200000000 Ag
atom 8.8152383300000015 5.8778598600000000 -3.4995248399999999 Ag
atom 11.7577692800000015 5.8800507999999994 -3.5028941199999997 Ag
atom -8.8183402399999995 8.8182101800000012 -3.4982012199999999 Ag
atom -5.8779925300000002 8.8151195200000014 -3.4995285899999997 Ag
atom -2.9374671000000001 8.8149175700000004 -3.5003002400000001 Ag
atom -0.0000012200000000 8.8117251799999998 -3.4974583600000000 Ag
atom 2.9374646900000001 8.8149180400000002 -3.5002998299999999 Ag
atom 5.8779900300000003 8.8151198700000002 -3.4995284399999997 Ag
atom 8.8183354000000005 8.8182092100000009 -3.4982012999999998 Ag
atom 11.7577677800000000 8.8183426699999998 -3.5000000000000000 Ag
atom -0.0000000000004543 -0.0000000000010638 0.0000000000059488 Mg
atom -0.0000013166896553 -2.0705718799829200 0.1583716200035606 N
atom 2.0705729099978831 -0.0000015164674210 0.1583581599901421 N
atom 0.0000012777964653 2.0705738600735919 0.1583443899844446 N
atom -2.0705728899833353 0.0000008965008756 0.1583583500095715 N
atom 1.1070702875655341 -2.8898689920706913 0.1911100885181176 C
atom -1.1070665624944767 -2.8898777778213462 0.1911101914881113 C
atom 1.1070671807795849 2.8898794011457372 0.1910897615341462 C
atom -1.1070709889540167 2.8898706291157921 0.1910897184188471 C
atom 2.8898782330487713 -1.1070676435755185 0.1911059269350564 C
atom 2.8898702372023406 1.1070697563243994 0.1910981530715104 C
atom -2.8898697767579584 -1.1070712165132137 0.1911059330729525 C
atom -2.8898786628169391 1.1070661736788590 0.1910984069196908 C
atom 0.6866483374756416 -4.2740741020038344 0.2437463078826529 C
atom -0.6864663134576114 -4.2738253991447417 0.2437405221368318 C
atom 0.6864666176066265 4.2738257496071288 0.2437311286690010 C
atom -0.6866488178520985 4.2740746452341050 0.2437369411591707 C
atom 4.2738299575529162 -0.6864705148390604 0.2437428531541841 C
atom 4.2740698214222164 0.6866444440936832 0.2437450560771322 C
atom -4.2740697755377628 -0.6866460374758333 0.2437483969102614 C
atom -4.2738299968933360 0.6864689247166013 0.2437394838951464 C
atom 2.4408038969294656 -2.4408048509131661 0.1813706830319727 C
atom -2.4408040725947449 -2.4408044585832145 0.1813707969467811 C
atom -2.4408049384366666 2.4408042525116493 0.1813500430552519 C
atom 2.4408050512540092 2.4408038670477077 0.1813498468951862 C
atom 1.3538445575885185 -5.1289839243937720 0.2790980614502607 H
atom -1.3560309433624893 -5.1318250538231984 0.2791557682666284 H
atom 1.3560318970776757 5.1318261715169040 0.2791579037714209 H
atom -1.3538440164674885 5.1289830935053002 0.2791002071950205 H
atom 5.1317736423458076 -1.3559931624716919 0.2791673952492727 H
atom 5.1290350493489916 1.3538825687117271 0.2791024933492421 H
atom -5.1290341529958861 -1.3538849708364022 0.2791115640626898 H
atom -5.1317744903438136 1.3559907364955541 0.2791580569683409 H
atom 3.2118999808556401 3.2118915797288601 0.2264350786195388 H
atom 3.2118900717489987 -3.2118985101623974 0.2264525426189311 H
atom -3.2118986444325954 -3.2118928559105204 0.2264526778941836 H
atom -3.2118915538229271 3.2118970846338013 0.2264351316200269 H
homogeneous_field 0.0 0.0 -0.1000000000000000
set_vacuum_level 52.0553949999999972