lattice_vector 100.0000000000000000 0.0000000000000000 0.0000000000000000
lattice_vector 0.0000000000000000 100.0000000000000000 0.0000000000000000
lattice_vector 0.0000000000000000 0.0000000000000000 100.0000000000000000
atom -0.0006821229478915 0.7535450231135146 0.1624370306002858 C
atom -0.0006822452788319 -0.7535708410316292 0.1624359682405858 C
atom 1.1897659609618090 1.4778035307935617 0.0554675008630626 C
atom -1.1863684381723600 1.4756577263931301 0.0560888652222318 C
atom 1.1897656602548392 -1.4778292887625748 0.0554696597017668 C
atom -1.1863694385463819 -1.4756835981110816 0.0560920189131923 C
atom 2.1878486009514284 2.0911286950407830 -0.1177689017396028 N
atom -2.1901628158100155 2.0925529098060047 -0.1181646801234528 N
atom 2.1878819586094296 -2.0910957000040189 -0.1177869784840573 N
atom -2.1901962457542763 -2.0925194935699869 -0.1161816616956213 N
homogeneous_field 0.0 0.0 0.0
set_vacuum_level 49.0000000000000000