lattice_vector 100.0000000000000000 0.0000000000000000 0.0000000000000000
lattice_vector 0.0000000000000000 100.0000000000000000 0.0000000000000000
lattice_vector 0.0000000000000000 0.0000000000000000 100.0000000000000000
atom -0.0000000107029305 0.7531211933731495 0.1611697474247501 C
atom -0.0000002456011635 -0.7539946750808667 0.1637028557641779 C
atom 1.1878345418898493 1.4767170848313775 0.0545336357894998 C
atom -1.1878343199022503 1.4767173365431430 0.0545325863791094 C
atom 1.1883002695500968 -1.4767697083221283 0.0570257849403544 C
atom -1.1883007465499877 -1.4767694759456507 0.0570257040150051 C
atom 2.1880775770066037 2.0929429708479637 -0.1192600034613765 N
atom -2.1880771058098070 2.0929437157416904 -0.1192610494862316 N
atom 2.1899680815003362 -2.0907036431160830 -0.1166904466692411 N
atom -2.1899680766213181 -2.0907043594818830 -0.1146905840544216 N
homogeneous_field 0.0 0.0 0.0
set_vacuum_level 49.0000000000000000