lattice_vector 100.0000000000000000 0.0000000000000000 0.0000000000000000
lattice_vector 0.0000000000000000 100.0000000000000000 0.0000000000000000
lattice_vector 0.0000000000000000 0.0000000000000000 100.0000000000000000
atom -0.0000000039541273 0.7539688513383150 0.1637043145757963 C
atom -0.0000002393667565 -0.7531470035465248 0.1611690815263606 C
atom 1.1883000823655718 1.4767439408727803 0.0570237916310502 C
atom -1.1882998633564188 1.4767441594718806 0.0570227163314326 C
atom 1.1878343547053243 -1.4767434216088258 0.0545358919001972 C
atom -1.1878348476412681 -1.4767431836744376 0.0545359728255465 C
atom 2.1899342924326874 2.0907379259767653 -0.1166725154880777 N
atom -2.1899338523218681 2.0907385920156218 -0.1166735941732304 N
atom 2.1881101017705542 -2.0929108395981042 -0.1192781923502199 N
atom -2.1881101359636861 -2.0929115341648981 -0.1172780549650346 N
homogeneous_field 0.0 0.0 0.0
set_vacuum_level 49.0000000000000000