xc                                 pbe
relativistic                       atomic_zora scalar
k_grid                             1 1 1
spin                               none
vdw_correction_hirshfeld           .true.
use_dipole_correction              .true.
compute_forces                     .true.
output_level                       MD_light
sc_accuracy_rho                    1e-07
output                             dipole
