#===============================================================================
# Created using the Atomic Simulation Environment (ASE)

# Thu Mar 13 11:15:05 2025

#=======================================================
lattice_vector 34.9799999999999969 0.0000000000000000 0.0000000000000000 
lattice_vector -17.4899999999999878 30.2935686243796631 0.0000000000000000 
lattice_vector 0.0000000000000000 0.0000000000000000 100.0000000000000000 
atom -9.5399999999999991 -14.6880000000000006 -1.5950000000000000 Mo
atom -7.9499999999999993 -13.7700000000000014 0.0000000000000000 S
atom -7.9499999999999993 -13.7700000000000014 -3.1899999999999999 S
atom -11.1299999999999990 -11.9340000000000011 -1.5950000000000000 Mo
atom -9.5399999999999991 -11.0160000000000000 0.0000000000000000 S
atom -9.5399999999999991 -11.0160000000000000 -3.1899999999999999 S
atom -12.7199999999999989 -9.1799999999999997 -1.5950000000000000 Mo
atom -11.1299999999999990 -8.2620000000000005 0.0000000000000000 S
atom -11.1299999999999990 -8.2620000000000005 -3.1899999999999999 S
atom -14.3099999999999987 -6.4260000000000002 -1.5950000000000000 Mo
atom -12.7199999999999989 -5.5080000000000009 0.0000000000000000 S
atom -12.7199999999999989 -5.5080000000000009 -3.1899999999999999 S
atom -15.8999999999999986 -3.6720000000000006 -1.5950000000000000 Mo
atom -14.3099999999999987 -2.7540000000000013 0.0000000000000000 S
atom -14.3099999999999987 -2.7540000000000013 -3.1899999999999999 S
atom -17.4899999999999984 -0.9180000000000010 -1.5950000000000000 Mo
atom -15.8999999999999986 0.0000000000000000 0.0000000000000000 S
atom -15.8999999999999986 0.0000000000000000 -3.1899999999999999 S
atom -19.0799999999999983 1.8360000000000003 -1.5950000000000000 Mo
atom -17.4899999999999984 2.7539999999999996 0.0000000000000000 S
atom -17.4899999999999984 2.7539999999999996 -3.1899999999999999 S
atom -20.6700000000000017 4.5899999999999981 -1.5950000000000000 Mo
atom -19.0799999999999983 5.5080000000000009 0.0000000000000000 S
atom -19.0799999999999983 5.5080000000000009 -3.1899999999999999 S
atom -22.2599999999999980 7.3439999999999994 -1.5950000000000000 Mo
atom -20.6700000000000017 8.2619999999999987 0.0000000000000000 S
atom -20.6700000000000017 8.2619999999999987 -3.1899999999999999 S
atom -23.8500000000000014 10.0980000000000008 -1.5950000000000000 Mo
atom -22.2599999999999980 11.0160000000000000 0.0000000000000000 S
atom -22.2599999999999980 11.0160000000000000 -3.1899999999999999 S
atom -25.4399999999999977 12.8519999999999985 -1.5950000000000000 Mo
atom -23.8500000000000014 13.7699999999999978 0.0000000000000000 S
atom -23.8500000000000014 13.7699999999999978 -3.1899999999999999 S
atom -6.3599999999999994 -14.6880000000000006 -1.5950000000000000 Mo
atom -4.7699999999999996 -13.7700000000000014 0.0000000000000000 S
atom -4.7699999999999996 -13.7700000000000014 -3.1899999999999999 S
atom -7.9499999999999993 -11.9340000000000011 -1.5950000000000000 Mo
atom -6.3599999999999994 -11.0160000000000000 0.0000000000000000 S
atom -6.3599999999999994 -11.0160000000000000 -3.1899999999999999 S
atom -9.5399999999999991 -9.1799999999999997 -1.5950000000000000 Mo
atom -7.9499999999999993 -8.2620000000000005 0.0000000000000000 S
atom -7.9499999999999993 -8.2620000000000005 -3.1899999999999999 S
atom -11.1299999999999990 -6.4260000000000002 -1.5950000000000000 Mo
atom -9.5399999999999991 -5.5080000000000009 0.0000000000000000 S
atom -9.5399999999999991 -5.5080000000000009 -3.1899999999999999 S
atom -12.7199999999999989 -3.6720000000000006 -1.5950000000000000 Mo
atom -11.1299999999999990 -2.7540000000000013 0.0000000000000000 S
atom -11.1299999999999990 -2.7540000000000013 -3.1899999999999999 S
atom -14.3099999999999987 -0.9180000000000010 -1.5950000000000000 Mo
atom -12.7199999999999989 0.0000000000000000 0.0000000000000000 S
atom -12.7199999999999989 0.0000000000000000 -3.1899999999999999 S
atom -15.8999999999999986 1.8360000000000003 -1.5950000000000000 Mo
atom -14.3099999999999987 2.7539999999999996 0.0000000000000000 S
atom -14.3099999999999987 2.7539999999999996 -3.1899999999999999 S
atom -17.4899999999999984 4.5899999999999981 -1.5950000000000000 Mo
atom -15.8999999999999986 5.5080000000000009 0.0000000000000000 S
atom -15.8999999999999986 5.5080000000000009 -3.1899999999999999 S
atom -19.0799999999999983 7.3439999999999994 -1.5950000000000000 Mo
atom -17.4899999999999984 8.2619999999999987 0.0000000000000000 S
atom -17.4899999999999984 8.2619999999999987 -3.1899999999999999 S
atom -20.6700000000000017 10.0980000000000008 -1.5950000000000000 Mo
atom -19.0799999999999983 11.0160000000000000 0.0000000000000000 S
atom -19.0799999999999983 11.0160000000000000 -3.1899999999999999 S
atom -22.2599999999999980 12.8519999999999985 -1.5950000000000000 Mo
atom -20.6700000000000017 13.7699999999999978 0.0000000000000000 S
atom -20.6700000000000017 13.7699999999999978 -3.1899999999999999 S
atom -3.1799999999999988 -14.6880000000000006 -1.5950000000000000 Mo
atom -1.5899999999999990 -13.7700000000000014 0.0000000000000000 S
atom -1.5899999999999990 -13.7700000000000014 -3.1899999999999999 S
atom -4.7699999999999996 -11.9340000000000011 -1.5950000000000000 Mo
atom -3.1799999999999988 -11.0160000000000000 0.0000000000000000 S
atom -3.1799999999999988 -11.0160000000000000 -3.1899999999999999 S
atom -6.3599999999999994 -9.1799999999999997 -1.5950000000000000 Mo
atom -4.7699999999999996 -8.2620000000000005 0.0000000000000000 S
atom -4.7699999999999996 -8.2620000000000005 -3.1899999999999999 S
atom -7.9499999999999993 -6.4260000000000002 -1.5950000000000000 Mo
atom -6.3599999999999994 -5.5080000000000009 0.0000000000000000 S
atom -6.3599999999999994 -5.5080000000000009 -3.1899999999999999 S
atom -9.5399999999999991 -3.6720000000000006 -1.5950000000000000 Mo
atom -7.9499999999999993 -2.7540000000000013 0.0000000000000000 S
atom -7.9499999999999993 -2.7540000000000013 -3.1899999999999999 S
atom -11.1299999999999990 -0.9180000000000010 -1.5950000000000000 Mo
atom -9.5399999999999991 0.0000000000000000 0.0000000000000000 S
atom -9.5399999999999991 0.0000000000000000 -3.1899999999999999 S
atom -12.7199999999999989 1.8360000000000003 -1.5950000000000000 Mo
atom -11.1299999999999990 2.7539999999999996 0.0000000000000000 S
atom -11.1299999999999990 2.7539999999999996 -3.1899999999999999 S
atom -14.3099999999999987 4.5899999999999981 -1.5950000000000000 Mo
atom -12.7199999999999989 5.5080000000000009 0.0000000000000000 S
atom -12.7199999999999989 5.5080000000000009 -3.1899999999999999 S
atom -15.8999999999999986 7.3439999999999994 -1.5950000000000000 Mo
atom -14.3099999999999987 8.2619999999999987 0.0000000000000000 S
atom -14.3099999999999987 8.2619999999999987 -3.1899999999999999 S
atom -17.4899999999999984 10.0980000000000008 -1.5950000000000000 Mo
atom -15.8999999999999986 11.0160000000000000 0.0000000000000000 S
atom -15.8999999999999986 11.0160000000000000 -3.1899999999999999 S
atom -19.0799999999999983 12.8519999999999985 -1.5950000000000000 Mo
atom -17.4899999999999984 13.7699999999999978 0.0000000000000000 S
atom -17.4899999999999984 13.7699999999999978 -3.1899999999999999 S
atom 0.0000000000000000 -14.6880000000000006 -1.5950000000000000 Mo
atom 1.5900000000000016 -13.7700000000000014 0.0000000000000000 S
atom 1.5900000000000016 -13.7700000000000014 -3.1899999999999999 S
atom -1.5899999999999990 -11.9340000000000011 -1.5950000000000000 Mo
atom 0.0000000000000000 -11.0160000000000000 0.0000000000000000 S
atom 0.0000000000000000 -11.0160000000000000 -3.1899999999999999 S
atom -3.1799999999999988 -9.1799999999999997 -1.5950000000000000 Mo
atom -1.5899999999999990 -8.2620000000000005 0.0000000000000000 S
atom -1.5899999999999990 -8.2620000000000005 -3.1899999999999999 S
atom -4.7699999999999996 -6.4260000000000002 -1.5950000000000000 Mo
atom -3.1799999999999988 -5.5080000000000009 0.0000000000000000 S
atom -3.1799999999999988 -5.5080000000000009 -3.1899999999999999 S
atom -6.3599999999999994 -3.6720000000000006 -1.5950000000000000 Mo
atom -4.7699999999999996 -2.7540000000000013 0.0000000000000000 S
atom -4.7699999999999996 -2.7540000000000013 -3.1899999999999999 S
atom -7.9499999999999993 -0.9180000000000010 -1.5950000000000000 Mo
atom -6.3599999999999994 0.0000000000000000 0.0000000000000000 S
atom -6.3599999999999994 0.0000000000000000 -3.1899999999999999 S
atom -9.5399999999999991 1.8360000000000003 -1.5950000000000000 Mo
atom -7.9499999999999993 2.7539999999999996 0.0000000000000000 S
atom -7.9499999999999993 2.7539999999999996 -3.1899999999999999 S
atom -11.1299999999999990 4.5899999999999981 -1.5950000000000000 Mo
atom -9.5399999999999991 5.5080000000000009 0.0000000000000000 S
atom -9.5399999999999991 5.5080000000000009 -3.1899999999999999 S
atom -12.7199999999999989 7.3439999999999994 -1.5950000000000000 Mo
atom -11.1299999999999990 8.2619999999999987 0.0000000000000000 S
atom -11.1299999999999990 8.2619999999999987 -3.1899999999999999 S
atom -14.3099999999999987 10.0980000000000008 -1.5950000000000000 Mo
atom -12.7199999999999989 11.0160000000000000 0.0000000000000000 S
atom -12.7199999999999989 11.0160000000000000 -3.1899999999999999 S
atom -15.8999999999999986 12.8519999999999985 -1.5950000000000000 Mo
atom -14.3099999999999987 13.7699999999999978 0.0000000000000000 S
atom -14.3099999999999987 13.7699999999999978 -3.1899999999999999 S
atom 3.1800000000000015 -14.6880000000000006 -1.5950000000000000 Mo
atom 4.7700000000000014 -13.7700000000000014 0.0000000000000000 S
atom 4.7700000000000014 -13.7700000000000014 -3.1899999999999999 S
atom 1.5900000000000016 -11.9340000000000011 -1.5950000000000000 Mo
atom 3.1800000000000015 -11.0160000000000000 0.0000000000000000 S
atom 3.1800000000000015 -11.0160000000000000 -3.1899999999999999 S
atom 0.0000000000000000 -9.1799999999999997 -1.5950000000000000 Mo
atom 1.5900000000000016 -8.2620000000000005 0.0000000000000000 S
atom 1.5900000000000016 -8.2620000000000005 -3.1899999999999999 S
atom -1.5899999999999990 -6.4260000000000002 -1.5950000000000000 Mo
atom 0.0000000000000000 -5.5080000000000009 0.0000000000000000 S
atom 0.0000000000000000 -5.5080000000000009 -3.1899999999999999 S
atom -3.1799999999999988 -3.6720000000000006 -1.5950000000000000 Mo
atom -1.5899999999999990 -2.7540000000000013 0.0000000000000000 S
atom -1.5899999999999990 -2.7540000000000013 -3.1899999999999999 S
atom -4.7699999999999996 -0.9180000000000010 -1.5950000000000000 Mo
atom -3.1799999999999988 0.0000000000000000 0.0000000000000000 S
atom -3.1799999999999988 0.0000000000000000 -3.1899999999999999 S
atom -6.3599999999999994 1.8360000000000003 -1.5950000000000000 Mo
atom -4.7699999999999996 2.7539999999999996 0.0000000000000000 S
atom -4.7699999999999996 2.7539999999999996 -3.1899999999999999 S
atom -7.9499999999999993 4.5899999999999981 -1.5950000000000000 Mo
atom -6.3599999999999994 5.5080000000000009 0.0000000000000000 S
atom -6.3599999999999994 5.5080000000000009 -3.1899999999999999 S
atom -9.5399999999999991 7.3439999999999994 -1.5950000000000000 Mo
atom -7.9499999999999993 8.2619999999999987 0.0000000000000000 S
atom -7.9499999999999993 8.2619999999999987 -3.1899999999999999 S
atom -11.1299999999999990 10.0980000000000008 -1.5950000000000000 Mo
atom -9.5399999999999991 11.0160000000000000 0.0000000000000000 S
atom -9.5399999999999991 11.0160000000000000 -3.1899999999999999 S
atom -12.7199999999999989 12.8519999999999985 -1.5950000000000000 Mo
atom -11.1299999999999990 13.7699999999999978 0.0000000000000000 S
atom -11.1299999999999990 13.7699999999999978 -3.1899999999999999 S
atom 6.3600000000000012 -14.6880000000000006 -1.5950000000000000 Mo
atom 7.9499999999999993 -13.7700000000000014 0.0000000000000000 S
atom 7.9499999999999993 -13.7700000000000014 -3.1899999999999999 S
atom 4.7700000000000014 -11.9340000000000011 -1.5950000000000000 Mo
atom 6.3600000000000012 -11.0160000000000000 0.0000000000000000 S
atom 6.3600000000000012 -11.0160000000000000 -3.1899999999999999 S
atom 3.1800000000000015 -9.1799999999999997 -1.5950000000000000 Mo
atom 4.7700000000000014 -8.2620000000000005 0.0000000000000000 S
atom 4.7700000000000014 -8.2620000000000005 -3.1899999999999999 S
atom 1.5900000000000016 -6.4260000000000002 -1.5950000000000000 Mo
atom 3.1800000000000015 -5.5080000000000009 0.0000000000000000 S
atom 3.1800000000000015 -5.5080000000000009 -3.1899999999999999 S
atom 0.0000000000000000 -3.6720000000000006 -1.5950000000000000 Mo
atom 1.5900000000000016 -2.7540000000000013 0.0000000000000000 S
atom 1.5900000000000016 -2.7540000000000013 -3.1899999999999999 S
atom -1.5899999999999990 -0.9180000000000010 -1.5950000000000000 Mo
atom 0.0000000000000000 0.0000000000000000 0.0000000000000000 S
atom 0.0000000000000000 0.0000000000000000 -3.1899999999999999 S
atom -3.1799999999999988 1.8360000000000003 -1.5950000000000000 Mo
atom -1.5899999999999990 2.7539999999999996 0.0000000000000000 S
atom -1.5899999999999990 2.7539999999999996 -3.1899999999999999 S
atom -4.7699999999999996 4.5899999999999981 -1.5950000000000000 Mo
atom -3.1799999999999988 5.5080000000000009 0.0000000000000000 S
atom -3.1799999999999988 5.5080000000000009 -3.1899999999999999 S
atom -6.3599999999999994 7.3439999999999994 -1.5950000000000000 Mo
atom -4.7699999999999996 8.2619999999999987 0.0000000000000000 S
atom -4.7699999999999996 8.2619999999999987 -3.1899999999999999 S
atom -7.9499999999999993 10.0980000000000008 -1.5950000000000000 Mo
atom -6.3599999999999994 11.0160000000000000 0.0000000000000000 S
atom -6.3599999999999994 11.0160000000000000 -3.1899999999999999 S
atom -9.5399999999999991 12.8519999999999985 -1.5950000000000000 Mo
atom -7.9499999999999993 13.7699999999999978 0.0000000000000000 S
atom -7.9499999999999993 13.7699999999999978 -3.1899999999999999 S
atom 9.5399999999999991 -14.6880000000000006 -1.5950000000000000 Mo
atom 11.1300000000000026 -13.7700000000000014 0.0000000000000000 S
atom 11.1300000000000026 -13.7700000000000014 -3.1899999999999999 S
atom 7.9499999999999993 -11.9340000000000011 -1.5950000000000000 Mo
atom 9.5399999999999991 -11.0160000000000000 0.0000000000000000 S
atom 9.5399999999999991 -11.0160000000000000 -3.1899999999999999 S
atom 6.3600000000000012 -9.1799999999999997 -1.5950000000000000 Mo
atom 7.9499999999999993 -8.2620000000000005 0.0000000000000000 S
atom 7.9499999999999993 -8.2620000000000005 -3.1899999999999999 S
atom 4.7700000000000014 -6.4260000000000002 -1.5950000000000000 Mo
atom 6.3600000000000012 -5.5080000000000009 0.0000000000000000 S
atom 6.3600000000000012 -5.5080000000000009 -3.1899999999999999 S
atom 3.1800000000000015 -3.6720000000000006 -1.5950000000000000 Mo
atom 4.7700000000000014 -2.7540000000000013 0.0000000000000000 S
atom 4.7700000000000014 -2.7540000000000013 -3.1899999999999999 S
atom 1.5900000000000016 -0.9180000000000010 -1.5950000000000000 Mo
atom 3.1800000000000015 0.0000000000000000 0.0000000000000000 S
atom 3.1800000000000015 0.0000000000000000 -3.1899999999999999 S
atom 0.0000000000000000 1.8360000000000003 -1.5950000000000000 Mo
atom 1.5900000000000016 2.7539999999999996 0.0000000000000000 S
atom 1.5900000000000016 2.7539999999999996 -3.1899999999999999 S
atom -1.5899999999999990 4.5899999999999981 -1.5950000000000000 Mo
atom 0.0000000000000000 5.5080000000000009 0.0000000000000000 S
atom 0.0000000000000000 5.5080000000000009 -3.1899999999999999 S
atom -3.1799999999999988 7.3439999999999994 -1.5950000000000000 Mo
atom -1.5899999999999990 8.2619999999999987 0.0000000000000000 S
atom -1.5899999999999990 8.2619999999999987 -3.1899999999999999 S
atom -4.7699999999999996 10.0980000000000008 -1.5950000000000000 Mo
atom -3.1799999999999988 11.0160000000000000 0.0000000000000000 S
atom -3.1799999999999988 11.0160000000000000 -3.1899999999999999 S
atom -6.3599999999999994 12.8519999999999985 -1.5950000000000000 Mo
atom -4.7699999999999996 13.7699999999999978 0.0000000000000000 S
atom -4.7699999999999996 13.7699999999999978 -3.1899999999999999 S
atom 12.7200000000000024 -14.6880000000000006 -1.5950000000000000 Mo
atom 14.3100000000000023 -13.7700000000000014 0.0000000000000000 S
atom 14.3100000000000023 -13.7700000000000014 -3.1899999999999999 S
atom 11.1300000000000026 -11.9340000000000011 -1.5950000000000000 Mo
atom 12.7200000000000024 -11.0160000000000000 0.0000000000000000 S
atom 12.7200000000000024 -11.0160000000000000 -3.1899999999999999 S
atom 9.5399999999999991 -9.1799999999999997 -1.5950000000000000 Mo
atom 11.1300000000000026 -8.2620000000000005 0.0000000000000000 S
atom 11.1300000000000026 -8.2620000000000005 -3.1899999999999999 S
atom 7.9499999999999993 -6.4260000000000002 -1.5950000000000000 Mo
atom 9.5399999999999991 -5.5080000000000009 0.0000000000000000 S
atom 9.5399999999999991 -5.5080000000000009 -3.1899999999999999 S
atom 6.3600000000000012 -3.6720000000000006 -1.5950000000000000 Mo
atom 7.9499999999999993 -2.7540000000000013 0.0000000000000000 S
atom 7.9499999999999993 -2.7540000000000013 -3.1899999999999999 S
atom 4.7700000000000014 -0.9180000000000010 -1.5950000000000000 Mo
atom 6.3600000000000012 0.0000000000000000 0.0000000000000000 S
atom 6.3600000000000012 0.0000000000000000 -3.1899999999999999 S
atom 3.1800000000000015 1.8360000000000003 -1.5950000000000000 Mo
atom 4.7700000000000014 2.7539999999999996 0.0000000000000000 S
atom 4.7700000000000014 2.7539999999999996 -3.1899999999999999 S
atom 1.5900000000000016 4.5899999999999981 -1.5950000000000000 Mo
atom 3.1800000000000015 5.5080000000000009 0.0000000000000000 S
atom 3.1800000000000015 5.5080000000000009 -3.1899999999999999 S
atom 0.0000000000000000 7.3439999999999994 -1.5950000000000000 Mo
atom 1.5900000000000016 8.2619999999999987 0.0000000000000000 S
atom 1.5900000000000016 8.2619999999999987 -3.1899999999999999 S
atom -1.5899999999999990 10.0980000000000008 -1.5950000000000000 Mo
atom 0.0000000000000000 11.0160000000000000 0.0000000000000000 S
atom 0.0000000000000000 11.0160000000000000 -3.1899999999999999 S
atom -3.1799999999999988 12.8519999999999985 -1.5950000000000000 Mo
atom -1.5899999999999990 13.7699999999999978 0.0000000000000000 S
atom -1.5899999999999990 13.7699999999999978 -3.1899999999999999 S
atom 15.9000000000000021 -14.6880000000000006 -1.5950000000000000 Mo
atom 17.4900000000000020 -13.7700000000000014 0.0000000000000000 S
atom 17.4900000000000020 -13.7700000000000014 -3.1899999999999999 S
atom 14.3100000000000023 -11.9340000000000011 -1.5950000000000000 Mo
atom 15.9000000000000021 -11.0160000000000000 0.0000000000000000 S
atom 15.9000000000000021 -11.0160000000000000 -3.1899999999999999 S
atom 12.7200000000000024 -9.1799999999999997 -1.5950000000000000 Mo
atom 14.3100000000000023 -8.2620000000000005 0.0000000000000000 S
atom 14.3100000000000023 -8.2620000000000005 -3.1899999999999999 S
atom 11.1300000000000026 -6.4260000000000002 -1.5950000000000000 Mo
atom 12.7200000000000024 -5.5080000000000009 0.0000000000000000 S
atom 12.7200000000000024 -5.5080000000000009 -3.1899999999999999 S
atom 9.5399999999999991 -3.6720000000000006 -1.5950000000000000 Mo
atom 11.1300000000000026 -2.7540000000000013 0.0000000000000000 S
atom 11.1300000000000026 -2.7540000000000013 -3.1899999999999999 S
atom 7.9499999999999993 -0.9180000000000010 -1.5950000000000000 Mo
atom 9.5399999999999991 0.0000000000000000 0.0000000000000000 S
atom 9.5399999999999991 0.0000000000000000 -3.1899999999999999 S
atom 6.3600000000000012 1.8360000000000003 -1.5950000000000000 Mo
atom 7.9499999999999993 2.7539999999999996 0.0000000000000000 S
atom 7.9499999999999993 2.7539999999999996 -3.1899999999999999 S
atom 4.7700000000000014 4.5899999999999981 -1.5950000000000000 Mo
atom 6.3600000000000012 5.5080000000000009 0.0000000000000000 S
atom 6.3600000000000012 5.5080000000000009 -3.1899999999999999 S
atom 3.1800000000000015 7.3439999999999994 -1.5950000000000000 Mo
atom 4.7700000000000014 8.2619999999999987 0.0000000000000000 S
atom 4.7700000000000014 8.2619999999999987 -3.1899999999999999 S
atom 1.5900000000000016 10.0980000000000008 -1.5950000000000000 Mo
atom 3.1800000000000015 11.0160000000000000 0.0000000000000000 S
atom 3.1800000000000015 11.0160000000000000 -3.1899999999999999 S
atom 0.0000000000000000 12.8519999999999985 -1.5950000000000000 Mo
atom 1.5900000000000016 13.7699999999999978 0.0000000000000000 S
atom 1.5900000000000016 13.7699999999999978 -3.1899999999999999 S
atom 19.0800000000000018 -14.6880000000000006 -1.5950000000000000 Mo
atom 20.6700000000000017 -13.7700000000000014 0.0000000000000000 S
atom 20.6700000000000017 -13.7700000000000014 -3.1899999999999999 S
atom 17.4900000000000020 -11.9340000000000011 -1.5950000000000000 Mo
atom 19.0800000000000018 -11.0160000000000000 0.0000000000000000 S
atom 19.0800000000000018 -11.0160000000000000 -3.1899999999999999 S
atom 15.9000000000000021 -9.1799999999999997 -1.5950000000000000 Mo
atom 17.4900000000000020 -8.2620000000000005 0.0000000000000000 S
atom 17.4900000000000020 -8.2620000000000005 -3.1899999999999999 S
atom 14.3100000000000023 -6.4260000000000002 -1.5950000000000000 Mo
atom 15.9000000000000021 -5.5080000000000009 0.0000000000000000 S
atom 15.9000000000000021 -5.5080000000000009 -3.1899999999999999 S
atom 12.7200000000000024 -3.6720000000000006 -1.5950000000000000 Mo
atom 14.3100000000000023 -2.7540000000000013 0.0000000000000000 S
atom 14.3100000000000023 -2.7540000000000013 -3.1899999999999999 S
atom 11.1300000000000026 -0.9180000000000010 -1.5950000000000000 Mo
atom 12.7200000000000024 0.0000000000000000 0.0000000000000000 S
atom 12.7200000000000024 0.0000000000000000 -3.1899999999999999 S
atom 9.5399999999999991 1.8360000000000003 -1.5950000000000000 Mo
atom 11.1300000000000026 2.7539999999999996 0.0000000000000000 S
atom 11.1300000000000026 2.7539999999999996 -3.1899999999999999 S
atom 7.9499999999999993 4.5899999999999981 -1.5950000000000000 Mo
atom 9.5399999999999991 5.5080000000000009 0.0000000000000000 S
atom 9.5399999999999991 5.5080000000000009 -3.1899999999999999 S
atom 6.3600000000000012 7.3439999999999994 -1.5950000000000000 Mo
atom 7.9499999999999993 8.2619999999999987 0.0000000000000000 S
atom 7.9499999999999993 8.2619999999999987 -3.1899999999999999 S
atom 4.7700000000000014 10.0980000000000008 -1.5950000000000000 Mo
atom 6.3600000000000012 11.0160000000000000 0.0000000000000000 S
atom 6.3600000000000012 11.0160000000000000 -3.1899999999999999 S
atom 3.1800000000000015 12.8519999999999985 -1.5950000000000000 Mo
atom 4.7700000000000014 13.7699999999999978 0.0000000000000000 S
atom 4.7700000000000014 13.7699999999999978 -3.1899999999999999 S
atom 22.2600000000000016 -14.6880000000000006 -1.5950000000000000 Mo
atom 23.8500000000000014 -13.7700000000000014 0.0000000000000000 S
atom 23.8500000000000014 -13.7700000000000014 -3.1899999999999999 S
atom 20.6700000000000017 -11.9340000000000011 -1.5950000000000000 Mo
atom 22.2600000000000016 -11.0160000000000000 0.0000000000000000 S
atom 22.2600000000000016 -11.0160000000000000 -3.1899999999999999 S
atom 19.0800000000000018 -9.1799999999999997 -1.5950000000000000 Mo
atom 20.6700000000000017 -8.2620000000000005 0.0000000000000000 S
atom 20.6700000000000017 -8.2620000000000005 -3.1899999999999999 S
atom 17.4900000000000020 -6.4260000000000002 -1.5950000000000000 Mo
atom 19.0800000000000018 -5.5080000000000009 0.0000000000000000 S
atom 19.0800000000000018 -5.5080000000000009 -3.1899999999999999 S
atom 15.9000000000000021 -3.6720000000000006 -1.5950000000000000 Mo
atom 17.4900000000000020 -2.7540000000000013 0.0000000000000000 S
atom 17.4900000000000020 -2.7540000000000013 -3.1899999999999999 S
atom 14.3100000000000023 -0.9180000000000010 -1.5950000000000000 Mo
atom 15.9000000000000021 0.0000000000000000 0.0000000000000000 S
atom 15.9000000000000021 0.0000000000000000 -3.1899999999999999 S
atom 12.7200000000000024 1.8360000000000003 -1.5950000000000000 Mo
atom 14.3100000000000023 2.7539999999999996 0.0000000000000000 S
atom 14.3100000000000023 2.7539999999999996 -3.1899999999999999 S
atom 11.1300000000000026 4.5899999999999981 -1.5950000000000000 Mo
atom 12.7200000000000024 5.5080000000000009 0.0000000000000000 S
atom 12.7200000000000024 5.5080000000000009 -3.1899999999999999 S
atom 9.5399999999999991 7.3439999999999994 -1.5950000000000000 Mo
atom 11.1300000000000026 8.2619999999999987 0.0000000000000000 S
atom 11.1300000000000026 8.2619999999999987 -3.1899999999999999 S
atom 7.9499999999999993 10.0980000000000008 -1.5950000000000000 Mo
atom 9.5399999999999991 11.0160000000000000 0.0000000000000000 S
atom 9.5399999999999991 11.0160000000000000 -3.1899999999999999 S
atom 6.3600000000000012 12.8519999999999985 -1.5950000000000000 Mo
atom 7.9499999999999993 13.7699999999999978 0.0000000000000000 S
atom 7.9499999999999993 13.7699999999999978 -3.1899999999999999 S
