xc                                 pbe
relativistic                       atomic_zora scalar
spin                               none
k_grid				   1 1 1
vdw_correction_hirshfeld           .true.
output_level                       MD_light
sc_accuracy_rho                    1e-07
output                             dipole
