lattice_vector 100.0000000000000000 0.0000000000000000 0.0000000000000000
lattice_vector 0.0000000000000000 100.0000000000000000 0.0000000000000000
lattice_vector 0.0000000000000000 0.0000000000000000 100.0000000000000000
atom -0.0000000074423699 0.7531173457242974 0.1621094109277429 C
atom -0.0000002415526502 -0.7531434359523115 0.1621084969937687 C
atom 1.1862261058810435 1.4776997180961582 0.0556864272170073 C
atom -1.1862258844673514 1.4776999548796881 0.0556853671886590 C
atom 1.1862270531264483 -1.4777251080517242 0.0556885665528142 C
atom -1.1862275359020769 -1.4777248752168790 0.0556885664944165 C
atom 2.1881530217234957 2.0908485023733561 -0.1177240873813461 N
atom -2.1881525670254840 2.0908492070570293 -0.1177251506283622 N
atom 2.1881863742415049 -2.0908157524807498 -0.1177422170090167 N
atom -2.1881863907204382 -2.0908164569025343 -0.1157422169438528 N
homogeneous_field 0.0 0.0 0.0
set_vacuum_level 49.0000000000000000