lattice_vector 100.0000000000000000 0.0000000000000000 0.0000000000000000
lattice_vector 0.0000000000000000 100.0000000000000000 0.0000000000000000
lattice_vector 0.0000000000000000 0.0000000000000000 100.0000000000000000
atom -0.0000000270934841 0.7552848517813936 0.1630349830098206 C
atom -0.0000002449139198 -0.7518310098584744 0.1618380483409006 C
atom 1.1880869270945120 1.4783497365998428 0.0561410273477579 C
atom -1.1880867589599644 1.4783499500271071 0.0561399657703367 C
atom 1.1880476724375604 -1.4751373528856480 0.0554185743557042 C
atom -1.1880481463737800 -1.4751371424471518 0.0554185716976048 C
atom 2.1891796797673706 2.0931591248739561 -0.1177783943557257 N
atom -2.1891792848984220 2.0931597955062022 -0.1177794538576584 N
atom 2.1888653201569799 -2.0904886238474232 -0.1181721297673355 N
atom -2.1888653148740533 -2.0904893678711143 -0.1161721350451671 N
homogeneous_field 0.0 0.0 -0.0010000000000000
set_vacuum_level 49.0000000000000000