lattice_vector 100.0000000000000000 0.0000000000000000 0.0000000000000000
lattice_vector 0.0000000000000000 100.0000000000000000 0.0000000000000000
lattice_vector 0.0000000000000000 0.0000000000000000 100.0000000000000000
atom -0.0000000138033080 0.7535704148208923 0.1600586987992758 C
atom -0.0000002495211780 -0.7535961068909038 0.1600570450432323 C
atom 1.1883453163286306 1.4764879732428127 0.0546679443521316 C
atom -1.1883451061551160 1.4764882209901886 0.0546669080496204 C
atom 1.1883452471409084 -1.4765140432042969 0.0546695685861334 C
atom -1.1883457371338773 -1.4765137989455293 0.0546694730101240 C
atom 2.1899582568872407 2.0907746700523666 -0.1180560821014825 N
atom -2.1899578024940918 2.0907754055711458 -0.1180571105173173 N
atom 2.1899910992563032 -2.0907418034746801 -0.1180746315023787 N
atom -2.1899911146767268 -2.0907424923235367 -0.1160747962305143 N
homogeneous_field 0.0 0.0 -0.0010000000000000
set_vacuum_level 49.0000000000000000