lattice_vector 100.0000000000000000 0.0000000000000000 0.0000000000000000
lattice_vector 0.0000000000000000 100.0000000000000000 0.0000000000000000
lattice_vector 0.0000000000000000 0.0000000000000000 100.0000000000000000
atom -0.0000000080730329 0.7536363384376643 0.1643589682875159 C
atom -0.0000002422255154 -0.7534794373085548 0.1605136639403664 C
atom 1.1878193933803927 1.4765660719946327 0.0538664702978164 C
atom -1.1878191730287979 1.4765663059962313 0.0538654101120512 C
atom 1.1883152833297930 -1.4769208883929035 0.0576934716837263 C
atom -1.1883157697366860 -1.4769206514940834 0.0576934795051565 C
atom 2.1890938735014522 2.0919163813815755 -0.1171668862232460 N
atom -2.1890934167793334 2.0919170867526908 -0.1171679495160272 N
atom 2.1889510073997305 -2.0917312521492404 -0.1187838338812874 N
atom -2.1889510201926905 -2.0917319572869086 -0.1167838384513895 N
homogeneous_field 0.0 0.0 -0.0010000000000000
set_vacuum_level 49.0000000000000000