lattice_vector 100.0000000000000000 0.0000000000000000 0.0000000000000000
lattice_vector 0.0000000000000000 100.0000000000000000 0.0000000000000000
lattice_vector 0.0000000000000000 0.0000000000000000 100.0000000000000000
atom -0.0000000089175416 0.7523401508538049 0.1626090551156478 C
atom -0.0000002498548548 -0.7547757085930225 0.1622637426182206 C
atom 1.1877820445505565 1.4761226592521624 0.0565537733271709 C
atom -1.1877818226651826 1.4761228984468437 0.0565526967523664 C
atom 1.1883526328826346 -1.4773644821402867 0.0550063188529629 C
atom -1.1883531318498701 -1.4773642442439494 0.0550063041620451 C
atom 2.1877665037331386 2.0929249133238312 -0.1166443465651590 N
atom -2.1877660477308369 2.0929256169942230 -0.1166454335072085 N
atom 2.1902785794399811 -2.0907228079465527 -0.1193049982556273 N
atom -2.1902786022554208 -2.0907235211240125 -0.1173050239272725 N
homogeneous_field 0.0 0.0 -0.0010000000000000
set_vacuum_level 49.0000000000000000