lattice_vector 100.0000000000000000 0.0000000000000000 0.0000000000000000
lattice_vector 0.0000000000000000 100.0000000000000000 0.0000000000000000
lattice_vector 0.0000000000000000 0.0000000000000000 100.0000000000000000
atom 0.0012622456050120 0.7535450255244164 0.1624370325012288 C
atom -0.0012624026081256 -0.7535708356780747 0.1624359660699846 C
atom 1.1895956437293325 1.4764292845256717 0.0556286379180738 C
atom -1.1865387608413012 1.4770319799206029 0.0559277246897452 C
atom 1.1865390269036020 -1.4770578778901742 0.0559308977384790 C
atom -1.1895960804061134 -1.4764550133503387 0.0556307784141342 C
atom 2.1893412041225266 2.0935123628743977 -0.1182773334428851 N
atom -2.1886702139711423 2.0901692375847611 -0.1176562557423401 N
atom 2.1887037513080294 -2.0901353748832325 -0.1176732665582341 N
atom -2.1893744394492920 -2.0934798160889549 -0.1162953681648935 N
homogeneous_field 0.0 0.0 -0.0010000000000000
set_vacuum_level 49.0000000000000000