lattice_vector 100.0000000000000000 0.0000000000000000 0.0000000000000000
lattice_vector 0.0000000000000000 100.0000000000000000 0.0000000000000000
lattice_vector 0.0000000000000000 0.0000000000000000 100.0000000000000000
atom 0.0002000076482367 0.7535450229032735 0.1624370269057174 C
atom 0.0001997721856293 -0.7535708394361688 0.1624359593466722 C
atom 1.1877835534089325 1.4779124285306167 0.0577081181864273 C
atom -1.1883508488984238 1.4755488370537806 0.0538482567943558 C
atom 1.1877836429524531 -1.4779383212003205 0.0577102969882342 C
atom -1.1883514675155888 -1.4755745778367202 0.0538513947356366 C
atom 2.1891716984671641 2.0914561302096479 -0.1188908864564550 N
atom -2.1888397145248955 2.0922254705531680 -0.1170426997239038 N
atom 2.1892046848852664 -2.0914228955124230 -0.1189089466682737 N
atom -2.1888735120142426 -2.0921922921631229 -0.1150596982848895 N
homogeneous_field 0.0 0.0 0.0
set_vacuum_level 49.0000000000000000